 vasp.6.4.1 05Apr23 (build May 18 2023 13:19:41) complex
 executed on    LinuxNV_CrayMPICH date 2023.11.09  00:37:48

 INCAR:
   SIGMA = 0.010000
   EDIFF = 1.00e-06
   ALGO = N
   GGA = PE
   PREC = Accurate
   SYSTEM = 03_BS
   ICHARG = 11
   ISMEAR = 0
   ISPIN = 1
   ISTART = 1
   KPAR = 8
   LORBIT = 11
   NBANDS = 896
   NELMIN = 5
   NPAR = 16
   IVDW = 11
   LCHARG = .TRUE.
   LWAVE = .TRUE.
   LREAL = .FALSE.

 POTCAR:   PAW_PBE C 08Apr2002
 POTCAR:   PAW_PBE C 08Apr2002
   VRHFIN =C: s2p2

   TITEL  = PAW_PBE C 08Apr2002
   POMASS =   12.011; ZVAL   =    4.000    mass and valenz
   ENMAX  =  400.000; ENMIN  =  300.000 eV
   QCUT   =   -5.516; QGAM   =   11.032    optimization parameters

   Description
     l     E      TYP  RCUT    TYP  RCUT
     0   .000     23  1.200
     0   .000     23  1.200
     1   .000     23  1.500
     1  2.500     23  1.500
     2   .000      7  1.500

 PAW_PBE C 08Apr2002                    :

 POSCAR:  C
  positions in cartesian coordinates
 exchange correlation table for  LEXCH =        8
   RHO(1)=    0.500       N(1)  =     2000
   RHO(2)=  100.500       N(2)  =     4000

 ion  position               nearest neighbor table
   1  0.371  0.538  0.002-  85 1.42 363 1.42 288 1.43
   2  0.369  0.544  0.063- 108 1.42  85 1.42   3 1.43
   3  0.338  0.595  0.061-   4 1.42   8 1.42   2 1.43
   4  0.321  0.611  0.030-   3 1.42 288 1.42   5 1.43
   5  0.278  0.629  0.028- 310 1.42  10 1.42   4 1.43
   6  0.367  0.549  0.123- 131 1.42 108 1.42   7 1.43
   7  0.335  0.599  0.121-   8 1.42  16 1.42   6 1.43
   8  0.317  0.614  0.090-   7 1.42   3 1.42   9 1.43
   9  0.274  0.629  0.089-  10 1.42  18 1.42   8 1.43
  10  0.254  0.627  0.057-   9 1.42   5 1.42  11 1.43
  11  0.212  0.603  0.056-  12 1.42  20 1.42  10 1.43
  12  0.196  0.584  0.024-  11 1.42 311 1.42  13 1.43
  13  0.168  0.528  0.023- 329 1.42  22 1.42  12 1.43
  14  0.364  0.555  0.184- 154 1.42 131 1.42  15 1.43
  15  0.331  0.602  0.182-  16 1.42  28 1.42  14 1.43
  16  0.313  0.617  0.151-  15 1.42   7 1.42  17 1.43
  17  0.270  0.629  0.149-  18 1.42  30 1.42  16 1.43
  18  0.250  0.626  0.118-  17 1.42   9 1.42  19 1.43
  19  0.209  0.600  0.116-  20 1.42  32 1.42  18 1.43
  20  0.193  0.580  0.085-  19 1.42  11 1.42  21 1.43
  21  0.166  0.522  0.083-  22 1.42  34 1.42  20 1.43
  22  0.159  0.492  0.052-  21 1.42  13 1.42  23 1.43
  23  0.155  0.420  0.050-  24 1.42  36 1.42  22 1.43
  24  0.159  0.388  0.019-  23 1.42 330 1.42  25 1.43
  25  0.178  0.324  0.017- 344 1.42  38 1.42  24 1.43
  26  0.362  0.560  0.244- 177 1.42 154 1.42  27 1.43
  27  0.328  0.605  0.242-  28 1.42  45 1.42  26 1.43
  28  0.309  0.619  0.211-  27 1.42  15 1.42  29 1.43
  29  0.266  0.629  0.209-  30 1.42  47 1.42  28 1.43
  30  0.246  0.624  0.178-  29 1.42  17 1.42  31 1.43
  31  0.205  0.596  0.176-  32 1.42  49 1.42  30 1.43
  32  0.190  0.575  0.145-  31 1.42  19 1.42  33 1.43
  33  0.164  0.516  0.143-  34 1.42  51 1.42  32 1.43
  34  0.158  0.485  0.112-  33 1.42  21 1.42  35 1.43
  35  0.155  0.414  0.110-  36 1.42  53 1.42  34 1.43
  36  0.160  0.382  0.079-  35 1.42  23 1.42  37 1.43
  37  0.181  0.319  0.078-  38 1.42  55 1.42  36 1.43
  38  0.195  0.295  0.046-  37 1.42  25 1.42  39 1.43
  39  0.233  0.260  0.045-  40 1.42  57 1.42  38 1.43
  40  0.253  0.252  0.013-  39 1.42 345 1.42  41 1.43
  41  0.297  0.254  0.012- 355 1.42  59 1.42  40 1.43
  42  0.371  0.538  0.336-  43 1.42  64 1.42 199 1.43
  43  0.359  0.565  0.305-  42 1.42 177 1.42  44 1.43
  44  0.324  0.608  0.303-  45 1.42  66 1.42  43 1.43
  45  0.305  0.621  0.272-  44 1.42  27 1.42  46 1.43
  46  0.262  0.628  0.270-  47 1.42  68 1.42  45 1.43
  47  0.242  0.623  0.239-  46 1.42  29 1.42  48 1.43
  48  0.202  0.592  0.237-  49 1.42  70 1.42  47 1.43
  49  0.187  0.570  0.206-  48 1.42  31 1.42  50 1.43
  50  0.163  0.510  0.204-  51 1.42  72 1.42  49 1.43
  51  0.157  0.479  0.173-  50 1.42  33 1.42  52 1.43
  52  0.156  0.407  0.171-  53 1.42  74 1.42  51 1.43
  53  0.161  0.375  0.140-  52 1.42  35 1.42  54 1.43
  54  0.183  0.314  0.138-  55 1.42  76 1.42  53 1.43
  55  0.198  0.291  0.107-  54 1.42  37 1.42  56 1.43
  56  0.237  0.258  0.105-  57 1.42  78 1.42  55 1.43
  57  0.257  0.251  0.074-  56 1.42  39 1.42  58 1.43
  58  0.301  0.255  0.072-  59 1.42  80 1.42  57 1.43
  59  0.320  0.266  0.041-  58 1.42  41 1.42  60 1.43
  60  0.356  0.308  0.039-  61 1.42  82 1.42  59 1.43
[...]
 350  0.364  0.323  0.887- 349 1.42 338 1.42 351 1.43
 351  0.384  0.387  0.885- 352 1.42 359 1.42 350 1.43
 352  0.387  0.419  0.854- 351 1.42 340 1.42 353 1.43
 353  0.384  0.490  0.852- 354 1.42 361 1.42 352 1.43
 354  0.377  0.521  0.821- 353 1.42 342 1.42 222 1.43
 355  0.316  0.264  0.981-  41 1.42 347 1.42 356 1.43
 356  0.353  0.303  0.979- 357 1.42  61 1.42 355 1.43
 357  0.366  0.328  0.948- 356 1.42 349 1.42 358 1.43
 358  0.385  0.393  0.946- 359 1.42 362 1.42 357 1.43
 359  0.388  0.426  0.915- 358 1.42 351 1.42 360 1.43
 360  0.383  0.497  0.913- 361 1.42 364 1.42 359 1.43
 361  0.375  0.527  0.882- 360 1.42 353 1.42 244 1.43
 362  0.388  0.432  0.975-  62 1.42 358 1.42 363 1.43
 363  0.381  0.503  0.973- 364 1.42   1 1.42 362 1.43
 364  0.373  0.533  0.942- 363 1.42 360 1.42 266 1.43

  LATTYP: Found a simple orthorhombic cell.
 ALAT       =    19.9214134216
 B/A-ratio  =     1.6250001197
 C/A-ratio  =     2.0303804144

  Lattice vectors:

 A1 = (   0.0000000000, -19.9214134216,   0.0000000000)
 A2 = (  32.3722991943,   0.0000000000,   0.0000000000)
 A3 = (   0.0000000000,   0.0000000000,  40.4480476379)

Analysis of symmetry for initial positions (statically):
 Subroutine PRICEL returns:
 Original cell was already a primitive cell.

 Routine SETGRP: Setting up the symmetry group for a
 simple orthorhombic supercell.

 Subroutine GETGRP returns: Found  1 space group operations
 (whereof  1 operations were pure point group operations)
 out of a pool of  8 trial point group operations.

The static configuration has the point symmetry C_1 .

Analysis of symmetry for dynamics (positions and initial velocities):
 Subroutine PRICEL returns:
 Original cell was already a primitive cell.

 Routine SETGRP: Setting up the symmetry group for a
 simple orthorhombic supercell.

 Subroutine GETGRP returns: Found  1 space group operations
 (whereof  1 operations were pure point group operations)
 out of a pool of  8 trial point group operations.

The dynamic configuration has the point symmetry C_1 .

 Subroutine INISYM returns: Found  1 space group operations
 (whereof  1 operations are pure point group operations),
 and found     1 'primitive' translations

                                     Primitive cell

  volume of cell :   26085.0250

  direct lattice vectors                    reciprocal lattice vectors
    32.372299194  0.000000000  0.000000000     0.030890608  0.000000000  0.000000000
     0.000000000 19.921413422  0.000000000     0.000000000  0.050197241  0.000000000
     0.000000000  0.000000000 40.448047638     0.000000000  0.000000000  0.024723072

  length of vectors
    32.372299194 19.921413422 40.448047638     0.030890608  0.050197241  0.024723072

  position of ions in fractional coordinates (direct lattice)
     0.370993369  0.538358225  0.002462495
     0.368830357  0.543875659  0.062855227
     0.338091388  0.595048527  0.061055778
     0.320513377  0.611466485  0.029922734
     0.277828976  0.628836977  0.028113045
     0.366543734  0.549268481  0.123253579
     0.334736933  0.598685571  0.121454703
     0.316822509  0.614105360  0.090318808
     0.273792551  0.629059151  0.088503999
     0.253562776  0.626917825  0.057371821
     0.212106401  0.602950170  0.055565672
     0.195581757  0.583869422  0.024429782
     0.168023102  0.528121533  0.022622329
     0.364128595  0.554526693  0.183666072
     0.331293380  0.602128753  0.181865315
     0.313074044  0.616532127  0.150722022
     0.269753360  0.629064609  0.148904796
     0.249586380  0.625783771  0.117766924
     0.208664984  0.599505711  0.115964052
     0.192554319  0.579518937  0.084824755
     0.166195892  0.522263622  0.083013894
     0.158933258  0.491512467  0.051879630
     0.154984048  0.420293028  0.050067559
     0.158741802  0.387919483  0.018932915
     0.178381990  0.323927477  0.017129201
     0.361605508  0.559649637  0.244095285
     0.327779661  0.605379728  0.242289963
     0.309267160  0.618752482  0.211139152
     0.265709512  0.628855982  0.209320005
     0.245629991  0.624444584  0.178172796
     0.205291226  0.595885746  0.176371853
     0.189617592  0.575008889  0.145228397
     0.164490265  0.516309056  0.143413282
     0.157892624  0.485167313  0.112274573
     0.155456364  0.413771241  0.110465966
     0.159899259  0.381632111  0.079325659
     0.180880452  0.318778374  0.077518636
     0.195038932  0.295201085  0.046386507
     0.233195058  0.259581064  0.044568595
     0.252864770  0.251584292  0.013437071
     0.296846927  0.253807335  0.011634276
     0.370985646  0.538136767  0.335712396
     0.358976708  0.564637894  0.304543825
     0.324204616  0.608450676  0.302731840
     0.305419958  0.620763954  0.271572947
     0.261673652  0.628423139  0.269754316
     0.241702829  0.622889648  0.238597936
     0.201992913  0.592091841  0.236795298
     0.186781742  0.570336079  0.205645683
     0.162925395  0.510257633  0.203826395
     0.156992713  0.478767626  0.172682189
     0.156074800  0.407280986  0.170876056
     0.161186696  0.375413649  0.139730909
     0.183490468  0.313775803  0.137917550
     0.198143706  0.291014268  0.106781066
     0.237033587  0.257565448  0.104964917
     0.256859053  0.250673304  0.073829569
     0.300767056  0.255366880  0.072025309
     0.319866778  0.266409278  0.040894057
     0.355729296  0.307841531  0.039074998
[...]
     0.363689033  0.322895781  0.887157698
     0.383593610  0.386664172  0.885348466
     0.387483294  0.418990562  0.854206463
     0.383847689  0.490250625  0.852402698
     0.376729116  0.521082165  0.821260204
     0.316174494  0.263768812  0.980502709
     0.352894337  0.303175408  0.978685572
     0.366117040  0.328145709  0.947553422
     0.384665442  0.392985164  0.945748839
     0.387862659  0.425520461  0.914612336
     0.382719181  0.496536458  0.912805028
     0.374942276  0.526963459  0.881671132
     0.388106885  0.432060144  0.975009620
     0.381451971  0.502744821  0.973199126
     0.373034003  0.532724019  0.942069896

  ion indices of the primitive-cell ions
   primitive index   ion index
                 1           1
                 2           2
                 3           3
                 4           4
                 5           5
                 6           6
                 7           7
                 8           8
                 9           9
                10          10
                11          11
                12          12
                13          13
                14          14
                15          15
                16          16
                17          17
                18          18
                19          19
                20          20
                21          21
                22          22
[...]
  201          m_alltoall_d                          0.005946                         40   4
  202        set_dd_magatom                        0.000000                            1   3
  203        set_dd_paw                            0.001558                            1   3
  204          set_rsgf_all                          0.000000                          1   4
  205          m_alltoall_d                          0.000511                          4   4
  206          m_sumb_d                              0.000433                          6   4
  207        strkin                                0.148230                            1   3
  208          m_sumb_d                              0.000024                          1   4
  209        strelo                                0.045023                            1   3
  210          m_sumb_d                              0.000804                          2   4
  211        strenl                              838.782472                            1   3
  212          spher                                 7.440643                         19   4
  213          phase                                22.841728                         18   4
  214          proj1                               585.686546                       1008   4
  215            crexp_mul_wave                      231.634979                   366912   5
  216            m_sumb_d                              0.051913                     1008   5
  217          m_sumb_d                            222.783551                          1   4
  218        m_sumb_d                              0.000007                            1   3
  219        chggra                                0.192425                            1   3
  220          fft3d_mpi                             0.138951                          3   4
  221            fftbrc_mpi                            0.135902                        3   5
  222              fftbas_plan_mpi                       0.135901                      3   6
  223                dfftw_execute                         0.044889                    9   7
  224                map_backward                          0.024195                    2   7
  225                  map_gather                            0.007677                  1   8
  226                  m_alltoallv_z                         0.010010                  1   8
  227                  map_scatter                           0.006497                  1   8
  228                map_forward                           0.066713                    4   7
  229                  map_gather                            0.013298                  2   8
  230                  m_alltoallv_z                         0.036479                  2   8
  231                  map_scatter                           0.016910                  2   8
  232          m_sumb_d                              0.000015                          2   4
  233          pothar                                0.013116                          1   4
  234            m_sumb_d                              0.000984                        1   5
  235        forhar                                1.214053                            1   3
  236          m_sumb_d                              0.000052                          1   4
  237        m_bcast_d                             0.188978                            2   3
  238      potlok                                1.053186                              1   2
  239        fft3d_mpi                             0.529020                           13   3
  240          fftbrc_mpi                            0.510653                         13   4
  241            fftbas_plan_mpi                       0.510640                       13   5
  242              dfftw_execute                         0.194585                     39   6
  243              map_forward                           0.190001                     14   6
  244                map_gather                            0.029950                    8   7
  245                m_alltoallv_z                         0.106456                    8   7
  246                map_scatter                           0.053515                    8   7
  247              map_backward                          0.125711                     12   6
  248                map_gather                            0.041117                    6   7
  249                m_alltoallv_z                         0.049129                    6   7
  250                map_scatter                           0.035401                    6   7
  251        ggaall_grid                           0.361270                            1   3
  252        m_sumb_d                              0.000236                            5   3
  253        pothar                                0.012243                            1   3
  254          m_sumb_d                              0.000273                          1   4
  255        m_bcast_d                             0.006502                            1   3
  256      potlok_metagga                        0.000001                              1   2
  257      set_dd_magatom                        0.000000                              1   2
  258      set_dd_paw                            0.023065                              1   2
  259        set_rsgf_all                          0.000000                            1   3
  260        m_alltoall_d                          0.022010                            4   3
  261        m_sumb_d                              0.000433                            6   3
  262      m_alltoall_d                        116.829788                         339058   2
  263      densta                                0.078922                              1   2
  264        m_sumb_d                              0.010763                           10   3
  265        m_alltoall_d                          0.044851                           52   3

 Flat profile

 m_alltoall_d                          985.875238      357701
 proj1                                 967.687176        2445
 gemm                                  788.214231      726908
 eddav                                 663.677238           6
 crexp_mul_wave                        576.646571      889980
 work_mul_crexp                        541.304828      726908
 fornl                                 349.382047           1
 total_time                            337.825219           1
 m_bcast_z                             284.105982       31576
 m_sumb_d                              227.883138       26758
 dfftw_execute                         209.240489       12360
 orth1                                  97.939277        6047
 ggemm                                  83.534514        2669
 phase                                  43.295545          35
 vhamil                                 37.903712        1997
 lincom                                 28.157652          14
 m_alltoallv_z                          26.658745        4123
 map_gather                             19.033676        4123
 fftext_mpi                             18.109900        1997
 map_scatter                            14.869532        4123
 fftwav_mpi                             11.558068        2089
 map_forward                             8.586642        4214
 spher                                   7.874432          20
 sphpro_fast                             6.253437           2
 redis_pw                                5.396245        5347
 eccp                                    5.369348         672
 w1_copy                                 2.823652        5991
 stufak                                  2.256643           2
 force_and_stress                        2.141326           1
 vnlac0                                  2.007010        1997
 pdssyex_zheevx                          1.536217          12
 kinhamil                                1.485557        1997
 forhar                                  1.214001           1
 forloc                                  1.208605           1
 lapack                                  0.870218        1997
 pw_charge                               0.862299          92
 apply_precond                           0.850029        1325
 setup_precond                           0.758961         672
 ggaall_grid                             0.700495           2
 m_bcast_d                               0.517309        4543
 hamiltmu                                0.424803        1997
 potlok                                  0.296245           2
 inisym                                  0.249309           1
 fftbas_plan_mpi                         0.161485        4120
 strkin                                  0.148206           1
 choleski                                0.118010           2
 setdij_                                 0.070093          29
 overl                                   0.069308        3324
 overl1                                  0.063248        1997
 fft3d_mpi                               0.057630        4120
 elmin                                   0.055200           1
 soft_charge                             0.049582           1
 strelo                                  0.044219           1
 redis_proj                              0.041087        6674
 chggra                                  0.040343           1
 pothar                                  0.036264           3
 strenl                                  0.030004           1
 map_backward                            0.028324        4026
 densta                                  0.024116           7
 orthch                                  0.017521           1
 augmentation_charge                     0.010390           1
 newband                                 0.009087        2009
 w1_projall                              0.008776        1325
 rsp                                     0.004414           1
 fftbas_mpi                              0.004104        4086
 set_dd_paw                              0.001975           3
 fft_gq                                  0.001673           1
 depsum                                  0.001544           1
 set_charge                              0.001412           1
 fewald                                  0.001367           1
 truncate_high_frequency_w1              0.000771        2669
 proj                                    0.000594           2
 rcp                                     0.000296           1
 posmap                                  0.000161           2
 fordep                                  0.000061           1
 crpa_reader                             0.000027           1
 fftbrc_mpi                              0.000026          34
 proall                                  0.000016           1
 FERMAT_RAZOR                            0.000012           1
 set_rsgf_all                            0.000004           3
 potlok_metagga                          0.000002           2
 rotate_active_occupied_orbital          0.000001           1
 vectorpot                               0.000000           2
 redis_pw_over_bands                     0.000000           1
 set_dd_magatom                          0.000000           3
  summed up times     6367.686913967133

 Accumulative profile

 total_time                           6367.686914           1
 elmin                                4312.275250           1
 eddav                                4310.878429           6
 proj1                                1544.468196        2445
 hamiltmu                             1528.447223        1997
 vnlac0                               1331.621473        1997
 force_and_stress                     1202.734842           1
 m_alltoall_d                          985.875238      357701
 w1_projall                            868.116050        1325
 strenl                                838.782472           1
 gemm                                  788.214231      726908
 redis_proj                            599.366938        6674
 crexp_mul_wave                        576.646571      889980
 work_mul_crexp                        541.304828      726908
 fornl                                 351.929857           1
 m_bcast_z                             284.105982       31576
 fft3d_mpi                             278.640652        4120
 fftbas_plan_mpi                       278.578893        4120
 fftbas_mpi                            277.191091        4086
 redis_pw                              257.260100        5347
 m_sumb_d                              227.883138       26758
 dfftw_execute                         209.240489       12360
 kinhamil                              158.433987        1997
 fftext_mpi                            156.948430        1997
 fftwav_mpi                            149.919834        2089
 orth1                                  97.939277        6047
 proall                                 93.305798           1
 proj                                   90.674970           2
 ggemm                                  83.534514        2669
 newband                                54.741363        2009
 map_forward                            45.861564        4214
 phase                                  43.295545          35
 vhamil                                 37.903712        1997
 lincom                                 28.157652          14
 m_alltoallv_z                          26.658745        4123
 map_backward                           23.315355        4026
 map_gather                             19.033676        4123
 map_scatter                            14.869532        4123
 spher                                   7.874432          20
 orthch                                  7.355501           1
 sphpro_fast                             7.160197           2
 set_charge                              6.812076           1
 soft_charge                             6.691419           1
 eccp                                    5.374180         672
 w1_copy                                 2.823652        5991
 stufak                                  2.256643           2
 potlok                                  2.162597           2
 pdssyex_zheevx                          1.536229          12
 fftbrc_mpi                              1.391932          34
 forhar                                  1.214053           1
 forloc                                  1.208704           1
 lapack                                  0.870218        1997
 pw_charge                               0.862299          92
 apply_precond                           0.850029        1325
 setup_precond                           0.761351         672
 fewald                                  0.747996           1
 ggaall_grid                             0.700495           2
 m_bcast_d                               0.517309        4543
 inisym                                  0.249470           1
 chggra                                  0.192425           1
 strkin                                  0.148230           1
 densta                                  0.132296           7
 choleski                                0.118010           2
 setdij_                                 0.108837          29
 augmentation_charge                     0.081649           1
 set_dd_paw                              0.069380           3
 overl                                   0.069308        3324
 overl1                                  0.063248        1997
 strelo                                  0.045023           1
 pothar                                  0.038062           3
 depsum                                  0.037596           1
 fft_gq                                  0.030426           1
 fordep                                  0.016427           1
 rsp                                     0.004414           1
 truncate_high_frequency_w1              0.000771        2669
 rcp                                     0.000296           1
 posmap                                  0.000161           2
 crpa_reader                             0.000027           1
 FERMAT_RAZOR                            0.000012           1
 set_rsgf_all                            0.000004           3
 potlok_metagga                          0.000002           2
 rotate_active_occupied_orbital          0.000001           1
 vectorpot                               0.000000           2
 redis_pw_over_bands                     0.000000           1
 set_dd_magatom                          0.000000           3

Profiling took   1.317239  0.510139  0.004022  0.003997 seconds
Profiling took   1.132613 seconds