 vasp.6.4.2 20Jul23 (build Oct 12 2023 10:31:02) complex
 executed on              LinuxNV date 2024.11.26  15:21:44

 INCAR:
   ENCUT = 520.000000
   SIGMA = 0.050000
   EDIFF = 1.00e-06
   ALGO = N
   GGA = PE
   PREC = Accurate
   SYSTEM = SCF
   ICHARG = 0
   ISMEAR = 0
   ISPIN = 2
   ISTART = 1
   LORBIT = 11
   NBANDS = 1728
   NELM = 100
   NELMIN = 5
   LASPH = .TRUE.
   LCHARG = .TRUE.
   LWAVE = .TRUE.
   LREAL = .FALSE.

 POTCAR:    PAW_PBE Ge 05Jan2001
 POTCAR:    PAW_PBE Se 06Sep2000
|           W    W    AA    RRRRR   N    N  II  N    N   GGGG   !!!           |
|           W    W   A  A   R    R  NN   N  II  NN   N  G    G  !!!           |
|           W    W  A    A  R    R  N N  N  II  N N  N  G       !!!           |
|           W WW W  AAAAAA  RRRRR   N  N N  II  N  N N  G  GGG   !            |
|           WW  WW  A    A  R   R   N   NN  II  N   NN  G    G                |
|           W    W  A    A  R    R  N    N  II  N    N   GGGG   !!!           |
|     You use a magnetic or noncollinear calculation, but did not specify     |
|     the initial magnetic moment with the MAGMOM tag. Note that a            |
|     default of 1 will be used for all atoms. This ferromagnetic setup       |
|     may break the symmetry of the crystal, in particular it may rule        |
|     out finding an antiferromagnetic solution. Thence, we recommend         |
|     setting the initial magnetic moment manually or verifying carefully     |
|     that this magnetic setup is desired.                                    |

 POTCAR:    PAW_PBE Ge 05Jan2001
   VRHFIN =Ge: s2p2

   TITEL  = PAW_PBE Ge 05Jan2001
   POMASS =   72.610; ZVAL   =    4.000    mass and valenz
   ENMAX  =  173.807; ENMIN  =  130.355 eV

 POTCAR:    PAW_PBE Se 06Sep2000
   VRHFIN =Se: s2p4

   TITEL  = PAW_PBE Se 06Sep2000
   POMASS =   78.960; ZVAL   =    6.000    mass and valenz
   ENMAX  =  211.555; ENMIN  =  158.666 eV

  PAW_PBE Ge 05Jan2001                  :
  PAW_PBE Se 06Sep2000                  :

 POSCAR: Ge Se
  positions in cartesian coordinates
 exchange correlation table for  LEXCH =        8
   RHO(1)=    0.500       N(1)  =     2000
   RHO(2)=  100.500       N(2)  =     4000

 ion  position               nearest neighbor table
   1  0.042  0.020  0.062- 535 2.60 361 2.61 366 2.61
   2  0.208  0.020  0.063- 536 2.59 362 2.61 361 2.61
   3  0.375  0.020  0.063- 537 2.59 363 2.61 362 2.61
   4  0.542  0.020  0.063- 538 2.59 364 2.61 363 2.61
   5  0.708  0.020  0.063- 539 2.59 365 2.61 364 2.61
   6  0.875  0.020  0.063- 540 2.59 366 2.61 365 2.61
   7  0.042  0.186  0.063- 505 2.59 367 2.61 372 2.61
   8  0.208  0.186  0.063- 506 2.59 368 2.61 367 2.61
   9  0.375  0.186  0.063- 507 2.59 369 2.61 368 2.61
  10  0.542  0.186  0.063- 508 2.59 370 2.61 369 2.61
  11  0.708  0.186  0.063- 509 2.59 371 2.61 370 2.61
  12  0.875  0.186  0.063- 510 2.59 372 2.61 371 2.61
  13  0.042  0.353  0.063- 511 2.59 373 2.61 378 2.61
  14  0.208  0.353  0.063- 512 2.59 374 2.61 373 2.61
  15  0.375  0.353  0.063- 513 2.59 375 2.61 374 2.61
  16  0.542  0.353  0.063- 514 2.59 376 2.61 375 2.61
  17  0.708  0.353  0.063- 515 2.59 377 2.61 376 2.61
  18  0.875  0.353  0.063- 516 2.59 378 2.61 377 2.61
  19  0.042  0.520  0.063- 517 2.59 379 2.61 384 2.61
  20  0.208  0.520  0.063- 518 2.59 380 2.61 379 2.61
  21  0.375  0.520  0.063- 519 2.59 381 2.61 380 2.61
  22  0.542  0.520  0.063- 520 2.59 382 2.61 381 2.61
  23  0.708  0.520  0.063- 521 2.59 383 2.61 382 2.61
  24  0.875  0.520  0.063- 522 2.59 384 2.61 383 2.61
  25  0.042  0.686  0.063- 523 2.59 385 2.61 390 2.61
  26  0.208  0.686  0.063- 524 2.59 386 2.61 385 2.61
  27  0.375  0.686  0.063- 525 2.59 387 2.61 386 2.61
  28  0.542  0.686  0.063- 526 2.59 388 2.61 387 2.61
  29  0.708  0.686  0.063- 527 2.59 389 2.61 388 2.61
  30  0.875  0.686  0.063- 528 2.59 390 2.61 389 2.61
  31  0.042  0.853  0.063- 529 2.59 391 2.61 396 2.61
  32  0.208  0.853  0.063- 530 2.59 392 2.61 391 2.61
  33  0.375  0.853  0.063- 531 2.59 393 2.61 392 2.61
  34  0.542  0.853  0.063- 532 2.59 394 2.61 393 2.61
  35  0.708  0.853  0.063- 533 2.59 395 2.61 394 2.61
  36  0.875  0.853  0.063- 534 2.59 396 2.61 395 2.61
  37  0.042  0.020  0.563- 571 2.59 397 2.61 402 2.61
  38  0.208  0.020  0.563- 572 2.59 398 2.61 397 2.61
  39  0.375  0.020  0.563- 573 2.59 399 2.61 398 2.61
  40  0.542  0.020  0.563- 574 2.59 400 2.61 399 2.61
  41  0.708  0.020  0.563- 575 2.59 401 2.61 400 2.61
  42  0.875  0.020  0.563- 576 2.59 402 2.61 401 2.61
  43  0.042  0.186  0.563- 541 2.59 403 2.61 408 2.61
  44  0.208  0.186  0.563- 542 2.59 404 2.61 403 2.61
  45  0.375  0.186  0.563- 543 2.59 405 2.61 404 2.61
  46  0.542  0.186  0.563- 544 2.59 406 2.61 405 2.61
  47  0.708  0.186  0.563- 545 2.59 407 2.61 406 2.61
  48  0.875  0.186  0.563- 546 2.59 408 2.61 407 2.61
  49  0.042  0.353  0.563- 547 2.59 409 2.61 414 2.61
  50  0.208  0.353  0.563- 548 2.59 410 2.61 409 2.61
  51  0.375  0.353  0.563- 549 2.59 411 2.61 410 2.61
  52  0.542  0.353  0.563- 550 2.59 412 2.61 411 2.61
  53  0.708  0.353  0.563- 551 2.59 413 2.61 412 2.61
  54  0.875  0.353  0.563- 552 2.59 414 2.61 413 2.61
  55  0.042  0.520  0.563- 553 2.59 415 2.61 420 2.61
  56  0.208  0.520  0.563- 554 2.59 416 2.61 415 2.61
  57  0.375  0.520  0.563- 555 2.59 417 2.61 416 2.61
  58  0.542  0.520  0.563- 556 2.59 418 2.61 417 2.61
  59  0.708  0.520  0.563- 557 2.59 419 2.61 418 2.61
  60  0.875  0.520  0.563- 558 2.59 420 2.61 419 2.61
[...]
 562  0.542  0.666  0.676-  64 2.59 202 2.61 201 2.61
 563  0.708  0.666  0.676-  65 2.59 203 2.61 202 2.61
 564  0.875  0.666  0.676-  66 2.59 204 2.61 203 2.61
 565  0.042  0.833  0.676-  67 2.59 205 2.61 210 2.61
 566  0.208  0.833  0.676-  68 2.59 206 2.61 205 2.61
 567  0.375  0.833  0.676-  69 2.59 207 2.61 206 2.61
 568  0.542  0.833  0.676-  70 2.59 208 2.61 207 2.61
 569  0.708  0.833  0.676-  71 2.59 209 2.61 208 2.61
 570  0.875  0.833  0.676-  72 2.59 210 2.61 209 2.61
 571  0.042  0.999  0.676-  37 2.59 211 2.61 216 2.61
 572  0.208  0.999  0.676-  38 2.59 212 2.61 211 2.61
 573  0.375  0.999  0.676-  39 2.59 213 2.61 212 2.61
 574  0.542  0.999  0.676-  40 2.59 214 2.61 213 2.61
 575  0.708  0.999  0.676-  41 2.59 215 2.61 214 2.61
 576  0.875  0.999  0.676-  42 2.59 216 2.61 215 2.61

  LATTYP: Found a simple orthorhombic cell.
 ALAT       =    22.3190494963
 B/A-ratio  =     1.0441241067
 C/A-ratio  =     1.2250346344

  Lattice vectors:

 A1 = (   0.0000000000,   0.0000000000,  22.3190494963)
 A2 = (  23.3038576169,   0.0000000000,   0.0000000000)
 A3 = (   0.0000000000,  27.3416086400,   0.0000000000)

Analysis of symmetry for initial positions (statically):
 Subroutine PRICEL returns:
 Original cell was already a primitive cell.

 Routine SETGRP: Setting up the symmetry group for a
 simple orthorhombic supercell.

 Subroutine GETGRP returns: Found  2 space group operations
 (whereof  1 operations were pure point group operations)
 out of a pool of  8 trial point group operations.

The static configuration has the point symmetry C_1 .
 The point group associated with its full space group is C_1h.

Analysis of symmetry for dynamics (positions and initial velocities):
 Subroutine PRICEL returns:
 Original cell was already a primitive cell.

[...]

The dynamic configuration has the point symmetry C_1 .
 The point group associated with its full space group is C_1h.

Analysis of structural, dynamic, and magnetic symmetry:
 Subroutine PRICEL returns:
 Original cell was already a primitive cell.

 Routine SETGRP: Setting up the symmetry group for a
 simple orthorhombic supercell.

 Subroutine GETGRP returns: Found  2 space group operations
 (whereof  1 operations were pure point group operations)
 out of a pool of  8 trial point group operations.

The overall configuration has the point symmetry C_1 .
 The point group associated with its full space group is C_1h.

 Subroutine INISYM returns: Found  2 space group operations
 (whereof  1 operations are pure point group operations),
 and found     1 'primitive' translations

                                     Primitive cell

  volume of cell :   14220.9162

  direct lattice vectors                    reciprocal lattice vectors
    23.303857617  0.000000000  0.000000000     0.042911350  0.000000000  0.000000000
     0.000000000 27.341608640  0.000000000     0.000000000  0.036574293  0.000000000
     0.000000000  0.000000000 22.319049496     0.000000000  0.000000000  0.044804775

  length of vectors
    23.303857617 27.341608640 22.319049496     0.042911350  0.036574293  0.044804775

  position of ions in fractional coordinates (direct lattice)
     0.041666667  0.019596146  0.062240372
     0.208333333  0.019596146  0.062688420
     0.375000000  0.019596146  0.062688420
     0.541666667  0.019596146  0.062688420
     0.708333333  0.019596146  0.062688420
     0.875000000  0.019596146  0.062688420
     0.041666667  0.186262813  0.062688420
     0.208333333  0.186262813  0.062688420
     0.375000000  0.186262813  0.062688420
     0.541666667  0.186262813  0.062688420
     0.708333333  0.186262813  0.062688420
     0.875000000  0.186262813  0.062688420
     0.041666667  0.352929480  0.062688420
     0.208333333  0.352929480  0.062688420
     0.375000000  0.352929480  0.062688420
     0.541666667  0.352929480  0.062688420
     0.708333333  0.352929480  0.062688420
     0.875000000  0.352929480  0.062688420
     0.041666667  0.519596146  0.062688420
     0.208333333  0.519596146  0.062688420
     0.375000000  0.519596146  0.062688420
     0.541666667  0.519596146  0.062688420
     0.708333333  0.519596146  0.062688420
     0.875000000  0.519596146  0.062688420
     0.041666667  0.686262813  0.062688420
     0.208333333  0.686262813  0.062688420
     0.375000000  0.686262813  0.062688420
     0.541666667  0.686262813  0.062688420
     0.708333333  0.686262813  0.062688420
     0.875000000  0.686262813  0.062688420
     0.041666667  0.852929480  0.062688420
     0.208333333  0.852929480  0.062688420
     0.375000000  0.852929480  0.062688420
     0.541666667  0.852929480  0.062688420
     0.708333333  0.852929480  0.062688420
     0.875000000  0.852929480  0.062688420
     0.041666667  0.019596146  0.562688420
     0.208333333  0.019596146  0.562688420
     0.375000000  0.019596146  0.562688420
     0.541666667  0.019596146  0.562688420
     0.708333333  0.019596146  0.562688420
     0.875000000  0.019596146  0.562688420
     0.041666667  0.186262813  0.562688420
     0.208333333  0.186262813  0.562688420
     0.375000000  0.186262813  0.562688420
     0.541666667  0.186262813  0.562688420
     0.708333333  0.186262813  0.562688420
     0.875000000  0.186262813  0.562688420
     0.041666667  0.352929480  0.562688420
     0.208333333  0.352929480  0.562688420
     0.375000000  0.352929480  0.562688420
     0.541666667  0.352929480  0.562688420
     0.708333333  0.352929480  0.562688420
     0.875000000  0.352929480  0.562688420
     0.041666667  0.519596146  0.562688420
     0.208333333  0.519596146  0.562688420
     0.375000000  0.519596146  0.562688420
     0.541666667  0.519596146  0.562688420
     0.708333333  0.519596146  0.562688420
[...]
   -.806E-09 0.155E+02 0.275E+02   -.439E-08 -.180E+02 -.305E+02   0.000E+00 0.260E+01 0.297E+01   -.487E-11 0.724E-04 0.101E-03
   0.164E-04 0.155E+02 0.275E+02   -.128E-05 -.180E+02 -.305E+02   -.271E-04 0.260E+01 0.297E+01   0.182E-05 0.731E-04 0.990E-04
   0.636E-05 0.155E+02 0.275E+02   -.805E-06 -.180E+02 -.305E+02   -.646E-04 0.260E+01 0.297E+01   0.110E-05 0.763E-04 0.104E-03
   -.806E-09 0.155E+02 0.275E+02   -.439E-08 -.180E+02 -.305E+02   0.000E+00 0.260E+01 0.297E+01   -.510E-11 0.782E-04 0.994E-04
   -.636E-05 0.155E+02 0.275E+02   0.796E-06 -.180E+02 -.305E+02   0.646E-04 0.260E+01 0.297E+01   -.110E-05 0.763E-04 0.104E-03
   -.164E-04 0.155E+02 0.275E+02   0.127E-05 -.180E+02 -.305E+02   0.271E-04 0.260E+01 0.297E+01   -.182E-05 0.731E-04 0.990E-04
   -.806E-09 0.155E+02 0.275E+02   -.439E-08 -.180E+02 -.305E+02   0.000E+00 0.260E+01 0.297E+01   -.522E-11 0.745E-04 0.106E-03
   0.672E-03 0.155E+02 0.275E+02   -.172E-04 -.180E+02 -.305E+02   -.506E-03 0.260E+01 0.297E+01   -.609E-06 0.749E-04 0.954E-04
   -.111E-04 0.155E+02 0.275E+02   -.400E-05 -.180E+02 -.305E+02   -.628E-04 0.260E+01 0.297E+01   0.200E-05 0.732E-04 0.100E-03
   -.806E-09 0.155E+02 0.275E+02   -.439E-08 -.180E+02 -.305E+02   0.000E+00 0.260E+01 0.297E+01   -.498E-11 0.737E-04 0.968E-04
   0.111E-04 0.155E+02 0.275E+02   0.399E-05 -.180E+02 -.305E+02   0.628E-04 0.260E+01 0.297E+01   -.200E-05 0.732E-04 0.100E-03
   -.672E-03 0.155E+02 0.275E+02   0.172E-04 -.180E+02 -.305E+02   0.506E-03 0.260E+01 0.297E+01   0.609E-06 0.749E-04 0.954E-04
   -.806E-09 0.155E+02 0.275E+02   -.439E-08 -.180E+02 -.305E+02   0.000E+00 0.260E+01 0.297E+01   -.491E-11 0.851E-04 0.959E-04
   0.258E-04 0.155E+02 0.275E+02   0.396E-05 -.180E+02 -.305E+02   -.206E-04 0.260E+01 0.297E+01   -.373E-05 0.801E-04 0.962E-04
   0.930E-05 0.155E+02 0.275E+02   0.243E-05 -.180E+02 -.305E+02   0.184E-05 0.260E+01 0.297E+01   -.339E-05 0.759E-04 0.100E-03
   -.806E-09 0.155E+02 0.275E+02   -.439E-08 -.180E+02 -.305E+02   0.000E+00 0.260E+01 0.297E+01   -.512E-11 0.754E-04 0.104E-03
   -.930E-05 0.155E+02 0.275E+02   -.244E-05 -.180E+02 -.305E+02   -.184E-05 0.260E+01 0.297E+01   0.339E-05 0.759E-04 0.100E-03
   -.258E-04 0.155E+02 0.275E+02   -.397E-05 -.180E+02 -.305E+02   0.206E-04 0.260E+01 0.297E+01   0.373E-05 0.801E-04 0.962E-04
   -.806E-09 0.155E+02 0.275E+02   -.439E-08 -.180E+02 -.305E+02   0.000E+00 0.260E+01 0.297E+01   -.496E-11 0.762E-04 0.946E-04
   -.137E-05 0.155E+02 0.275E+02   0.232E-05 -.180E+02 -.305E+02   -.425E-05 0.260E+01 0.297E+01   -.510E-05 0.762E-04 0.963E-04
   0.635E-06 0.155E+02 0.275E+02   0.156E-05 -.180E+02 -.305E+02   0.148E-04 0.260E+01 0.297E+01   -.212E-05 0.746E-04 0.102E-03
   -.806E-09 0.155E+02 0.275E+02   -.439E-08 -.180E+02 -.305E+02   0.000E+00 0.260E+01 0.297E+01   -.509E-11 0.760E-04 0.100E-03
   -.636E-06 0.155E+02 0.275E+02   -.157E-05 -.180E+02 -.305E+02   -.148E-04 0.260E+01 0.297E+01   0.212E-05 0.746E-04 0.102E-03
   0.137E-05 0.155E+02 0.275E+02   -.233E-05 -.180E+02 -.305E+02   0.425E-05 0.260E+01 0.297E+01   0.510E-05 0.762E-04 0.963E-04
   -.806E-09 0.155E+02 0.275E+02   -.439E-08 -.180E+02 -.305E+02   0.000E+00 0.260E+01 0.297E+01   -.543E-11 0.669E-04 0.100E-03
   -.198E-05 0.155E+02 0.275E+02   0.643E-06 -.180E+02 -.305E+02   0.262E-05 0.260E+01 0.297E+01   -.160E-05 0.710E-04 0.104E-03
   -.275E-06 0.155E+02 0.275E+02   0.516E-06 -.180E+02 -.305E+02   0.738E-05 0.260E+01 0.297E+01   -.617E-05 0.724E-04 0.103E-03
   -.806E-09 0.155E+02 0.275E+02   -.439E-08 -.180E+02 -.305E+02   0.000E+00 0.260E+01 0.297E+01   -.515E-11 0.717E-04 0.979E-04
   0.274E-06 0.155E+02 0.275E+02   -.525E-06 -.180E+02 -.305E+02   -.738E-05 0.260E+01 0.297E+01   0.617E-05 0.724E-04 0.103E-03
   0.198E-05 0.155E+02 0.275E+02   -.652E-06 -.180E+02 -.305E+02   -.262E-05 0.260E+01 0.297E+01   0.160E-05 0.710E-04 0.104E-03
   -.806E-09 0.155E+02 0.275E+02   -.439E-08 -.180E+02 -.305E+02   0.000E+00 0.260E+01 0.297E+01   -.507E-11 0.750E-04 0.988E-04
   0.120E-05 0.155E+02 0.275E+02   0.239E-06 -.180E+02 -.305E+02   0.504E-06 0.260E+01 0.297E+01   -.279E-05 0.731E-04 0.995E-04
   0.294E-06 0.155E+02 0.275E+02   0.215E-06 -.180E+02 -.305E+02   0.120E-05 0.260E+01 0.297E+01   -.334E-05 0.731E-04 0.100E-03
   -.806E-09 0.155E+02 0.275E+02   -.439E-08 -.180E+02 -.305E+02   0.000E+00 0.260E+01 0.297E+01   -.521E-11 0.734E-04 0.100E-03
   -.296E-06 0.155E+02 0.275E+02   -.224E-06 -.180E+02 -.305E+02   -.120E-05 0.260E+01 0.297E+01   0.334E-05 0.731E-04 0.100E-03
   -.121E-05 0.155E+02 0.275E+02   -.248E-06 -.180E+02 -.305E+02   -.504E-06 0.260E+01 0.297E+01   0.279E-05 0.731E-04 0.995E-04
[...]
   0.322E-03 -.141E+02 -.264E+02   -.327E-03 0.156E+02 0.280E+02   -.477E-06 -.154E+01 -.165E+01   0.485E-05 0.377E-04 0.298E-04
   0.402E-03 -.141E+02 -.264E+02   -.406E-03 0.156E+02 0.280E+02   0.254E-06 -.154E+01 -.165E+01   0.364E-05 0.363E-04 0.244E-04
   -.833E-09 -.141E+02 -.264E+02   -.508E-08 0.156E+02 0.280E+02   0.000E+00 -.154E+01 -.165E+01   -.994E-11 0.337E-04 0.156E-04
   -.169E-02 -.141E+02 -.264E+02   0.169E-02 0.156E+02 0.280E+02   -.156E-04 -.154E+01 -.165E+01   0.246E-05 0.346E-04 0.214E-04
   -.108E-02 -.141E+02 -.264E+02   0.108E-02 0.156E+02 0.280E+02   -.149E-04 -.154E+01 -.165E+01   -.249E-06 0.384E-04 0.295E-04
   -.833E-09 -.141E+02 -.264E+02   -.508E-08 0.156E+02 0.280E+02   0.000E+00 -.154E+01 -.165E+01   -.948E-11 0.408E-04 0.354E-04
   0.108E-02 -.141E+02 -.264E+02   -.108E-02 0.156E+02 0.280E+02   0.149E-04 -.154E+01 -.165E+01   0.249E-06 0.384E-04 0.295E-04
   0.169E-02 -.141E+02 -.264E+02   -.169E-02 0.156E+02 0.280E+02   0.156E-04 -.154E+01 -.165E+01   -.246E-05 0.346E-04 0.214E-04
   -.833E-09 -.141E+02 -.264E+02   -.508E-08 0.156E+02 0.280E+02   0.000E+00 -.154E+01 -.165E+01   -.969E-11 0.458E-04 0.144E-04
   -.348E-02 -.141E+02 -.264E+02   0.356E-02 0.156E+02 0.280E+02   -.152E-03 -.154E+01 -.165E+01   -.815E-06 0.401E-04 0.159E-04
   -.191E-02 -.141E+02 -.264E+02   0.193E-02 0.156E+02 0.280E+02   -.522E-04 -.154E+01 -.165E+01   -.116E-05 0.379E-04 0.208E-04
   -.833E-09 -.141E+02 -.264E+02   -.508E-08 0.156E+02 0.280E+02   0.000E+00 -.154E+01 -.165E+01   -.937E-11 0.363E-04 0.288E-04
   0.191E-02 -.141E+02 -.264E+02   -.193E-02 0.156E+02 0.280E+02   0.522E-04 -.154E+01 -.165E+01   0.116E-05 0.379E-04 0.208E-04
   0.348E-02 -.141E+02 -.264E+02   -.356E-02 0.156E+02 0.280E+02   0.152E-03 -.154E+01 -.165E+01   0.815E-06 0.401E-04 0.159E-04
   0.666E-05 0.230E-01 0.169E-01   0.191E-12 -.104E-11 0.101E-11   0.000E+00 -.230E-01 -.169E-01   0.251E-09 -.124E-06 0.152E-04

 POSITION                                       TOTAL-FORCE (eV/Angst)
      0.97099      0.53579      1.38915        -0.000000      0.013414      0.064107
      4.85497      0.53579      1.39915        -0.000227      0.005602      0.014166
      8.73895      0.53579      1.39915        -0.000069      0.005222      0.013660
     12.62292      0.53579      1.39915        -0.000000      0.005202      0.013570
     16.50690      0.53579      1.39915         0.000069      0.005222      0.013660
     20.39088      0.53579      1.39915         0.000227      0.005602      0.014166
      0.97099      5.09272      1.39915        -0.000000      0.005044      0.013768
      4.85497      5.09272      1.39915         0.000289      0.005417      0.013071
      8.73895      5.09272      1.39915        -0.000012      0.005152      0.013605
     12.62292      5.09272      1.39915        -0.000000      0.005194      0.013559
     16.50690      5.09272      1.39915         0.000012      0.005152      0.013605
     20.39088      5.09272      1.39915        -0.000289      0.005417      0.013071
      0.97099      9.64966      1.39915        -0.000000      0.005205      0.013534
      4.85497      9.64966      1.39915         0.000015      0.005200      0.013539
      8.73895      9.64966      1.39915        -0.000001      0.005195      0.013535
     12.62292      9.64966      1.39915        -0.000000      0.005181      0.013524
     16.50690      9.64966      1.39915         0.000001      0.005195      0.013535
     20.39088      9.64966      1.39915        -0.000015      0.005200      0.013539
      0.97099     14.20659      1.39915        -0.000000      0.005215      0.013520
      4.85497     14.20659      1.39915        -0.000000      0.005216      0.013520
      8.73895     14.20659      1.39915         0.000000      0.005211      0.013519
     12.62292     14.20659      1.39915        -0.000000      0.005203      0.013508
     16.50690     14.20659      1.39915        -0.000000      0.005211      0.013519
     20.39088     14.20659      1.39915         0.000000      0.005216      0.013520
      0.97099     18.76353      1.39915        -0.000000      0.005256      0.013534
      4.85497     18.76353      1.39915        -0.000010      0.005245      0.013539
      8.73895     18.76353      1.39915        -0.000058      0.005214      0.013535
     12.62292     18.76353      1.39915        -0.000000      0.005225      0.013524
     16.50690     18.76353      1.39915         0.000058      0.005214      0.013535
     20.39088     18.76353      1.39915         0.000010      0.005245      0.013539
      0.97099     23.32046      1.39915        -0.000000      0.005149      0.013767
      4.85497     23.32046      1.39915         0.000148      0.005008      0.013070
      8.73895     23.32046      1.39915        -0.000076      0.005204      0.013605
     12.62292     23.32046      1.39915        -0.000000      0.005208      0.013558
     16.50690     23.32046      1.39915         0.000076      0.005204      0.013605
     20.39088     23.32046      1.39915        -0.000148      0.005008      0.013070
      0.97099      0.53579     12.55867        -0.000000      0.005230      0.013320
      4.85497      0.53579     12.55867         0.000005      0.005173      0.013357
      8.73895      0.53579     12.55867         0.000010      0.005173      0.013444
     12.62292      0.53579     12.55867        -0.000000      0.005177      0.013463
     16.50690      0.53579     12.55867        -0.000010      0.005173      0.013444
     20.39088      0.53579     12.55867        -0.000005      0.005173      0.013357
      0.97099      5.09272     12.55867        -0.000000      0.005203      0.013383
      4.85497      5.09272     12.55867        -0.000008      0.005186      0.013408
      8.73895      5.09272     12.55867         0.000015      0.005179      0.013459
     12.62292      5.09272     12.55867        -0.000000      0.005178      0.013466
     16.50690      5.09272     12.55867        -0.000015      0.005179      0.013459
     20.39088      5.09272     12.55867         0.000008      0.005186      0.013408
      0.97099      9.64966     12.55867        -0.000000      0.005204      0.013460
      4.85497      9.64966     12.55867        -0.000000      0.005206      0.013462
      8.73895      9.64966     12.55867         0.000001      0.005201      0.013468
     12.62292      9.64966     12.55867        -0.000000      0.005192      0.013471
     16.50690      9.64966     12.55867        -0.000001      0.005201      0.013468
     20.39088      9.64966     12.55867         0.000000      0.005206      0.013462
      0.97099     14.20659     12.55867        -0.000000      0.005203      0.013476
      4.85497     14.20659     12.55867        -0.000001      0.005202      0.013475
      8.73895     14.20659     12.55867        -0.000002      0.005201      0.013474
     12.62292     14.20659     12.55867        -0.000000      0.005201      0.013473
     16.50690     14.20659     12.55867         0.000002      0.005201      0.013474
     20.39088     14.20659     12.55867         0.000001      0.005202      0.013475
[...]
     12.62292     18.20873     15.09077        -0.000000      0.000289      0.001630
     16.50690     18.20873     15.09077        -0.000000      0.000292      0.001633
     20.39088     18.20873     15.09077        -0.000000      0.000294      0.001637
      0.97099     22.76566     15.09077        -0.000000      0.000330      0.001702
      4.85497     22.76566     15.09077        -0.000016      0.000315      0.001699
      8.73895     22.76566     15.09077        -0.000009      0.000294      0.001645
     12.62292     22.76566     15.09077        -0.000000      0.000295      0.001635
     16.50690     22.76566     15.09077         0.000009      0.000294      0.001645
     20.39088     22.76566     15.09077         0.000016      0.000315      0.001699
      0.97099     27.32260     15.09077        -0.000000      0.000269      0.001932
      4.85497     27.32260     15.09077        -0.000072      0.000282      0.001736
      8.73895     27.32260     15.09077        -0.000031      0.000290      0.001650
     12.62292     27.32260     15.09077        -0.000000      0.000295      0.001638
     16.50690     27.32260     15.09077         0.000031      0.000290      0.001650
     20.39088     27.32260     15.09077         0.000072      0.000282      0.001736
    total drift:                                0.000007     -0.000001     -0.000002

  FREE ENERGIE OF THE ION-ELECTRON SYSTEM (eV)
  free  energy   TOTEN  =     -2435.63556954 eV

  energy  without entropy=    -2435.63556954  energy(sigma->0) =    -2435.63556954

 writing wavefunctions

 total charge

[...]

 magnetization (x)

# of ion       s       p       d       tot
    1       -0.000   0.000  -0.000   0.000
    2       -0.000   0.000  -0.000   0.000
    3       -0.000   0.000  -0.000   0.000
    4       -0.000   0.000  -0.000   0.000
    5       -0.000   0.000  -0.000   0.000
    6       -0.000   0.000  -0.000   0.000
    7       -0.000   0.000  -0.000   0.000
    8       -0.000   0.000  -0.000   0.000
    9       -0.000   0.000  -0.000   0.000
   10       -0.000   0.000  -0.000   0.000
   11       -0.000   0.000  -0.000   0.000
   12       -0.000   0.000  -0.000   0.000
   13       -0.000   0.000  -0.000   0.000
   14       -0.000   0.000  -0.000   0.000
   15       -0.000   0.000  -0.000   0.000
   16       -0.000   0.000  -0.000   0.000
   17       -0.000   0.000  -0.000   0.000
   18       -0.000   0.000  -0.000   0.000
   19       -0.000   0.000  -0.000   0.000
   20       -0.000   0.000  -0.000   0.000
   21       -0.000   0.000  -0.000   0.000
   22       -0.000   0.000  -0.000   0.000
   23       -0.000   0.000  -0.000   0.000
   24       -0.000   0.000  -0.000   0.000
   25       -0.000   0.000  -0.000   0.000
   26       -0.000   0.000  -0.000   0.000
   27       -0.000   0.000  -0.000   0.000
   28       -0.000   0.000  -0.000   0.000
   29       -0.000   0.000  -0.000   0.000
   30       -0.000   0.000  -0.000   0.000
   31       -0.000   0.000  -0.000   0.000
   32       -0.000   0.000  -0.000   0.000
   33       -0.000   0.000  -0.000   0.000
   34       -0.000   0.000  -0.000   0.000
   35       -0.000   0.000  -0.000   0.000
   36       -0.000   0.000  -0.000   0.000
   37       -0.000   0.000  -0.000   0.000
   38       -0.000   0.000  -0.000   0.000
   39       -0.000   0.000  -0.000   0.000
   40       -0.000   0.000  -0.000   0.000
   41       -0.000   0.000  -0.000   0.000
   42       -0.000   0.000  -0.000   0.000
   43       -0.000   0.000  -0.000   0.000
   44       -0.000   0.000  -0.000   0.000
   45       -0.000   0.000  -0.000   0.000
   46       -0.000   0.000  -0.000   0.000
   47       -0.000   0.000  -0.000   0.000
   48       -0.000   0.000  -0.000   0.000
   49       -0.000   0.000  -0.000   0.000
   50       -0.000   0.000  -0.000   0.000
   51       -0.000   0.000  -0.000   0.000
   52       -0.000   0.000  -0.000   0.000
   53       -0.000   0.000  -0.000   0.000
   54       -0.000   0.000  -0.000   0.000
   55       -0.000   0.000  -0.000   0.000
   56       -0.000   0.000  -0.000   0.000
   57       -0.000   0.000  -0.000   0.000
   58       -0.000   0.000  -0.000   0.000
   59       -0.000   0.000  -0.000   0.000
   60       -0.000   0.000  -0.000   0.000
[...]
  562       -0.000  -0.000   0.000  -0.000
  563       -0.000  -0.000   0.000  -0.000
  564       -0.000  -0.000   0.000  -0.000
  565       -0.000  -0.000   0.000  -0.000
  566       -0.000  -0.000   0.000  -0.000
  567       -0.000  -0.000   0.000  -0.000
  568       -0.000  -0.000   0.000  -0.000
  569       -0.000  -0.000   0.000  -0.000
  570       -0.000  -0.000   0.000  -0.000
  571       -0.000  -0.000   0.000  -0.000
  572       -0.000  -0.000   0.000  -0.000
  573       -0.000  -0.000   0.000  -0.000
  574       -0.000  -0.000   0.000  -0.000
  575       -0.000  -0.000   0.000  -0.000
  576       -0.000  -0.000   0.000  -0.000
tot         -0.000  -0.000   0.000  -0.000