 vasp.6.4.1 05Apr23 (build May 18 2023 13:19:41) complex
 executed on    LinuxNV_CrayMPICH date 2023.11.03  09:52:06

 INCAR:
   SIGMA = 0.010000
   EDIFF = 1.00e-06
   ALGO = N
   GGA = PE
   PREC = Accurate
   SYSTEM = 02_SCF
   ICHARG = 0
   ISMEAR = 0
   ISPIN = 1
   ISTART = 1
   KPAR = 2
   LORBIT = 11
   NBANDS = 896
   NELMIN = 5
   NPAR = 32
   IVDW = 11
   LCHARG = .TRUE.
   LWAVE = .TRUE.
   LREAL = .FALSE.

 POTCAR:   PAW_PBE C 08Apr2002
 POTCAR:   PAW_PBE C 08Apr2002
   VRHFIN =C: s2p2

   TITEL  = PAW_PBE C 08Apr2002
   POMASS =   12.011; ZVAL   =    4.000    mass and valenz
   ENMAX  =  400.000; ENMIN  =  300.000 eV
   QCUT   =   -5.516; QGAM   =   11.032    optimization parameters

   Description
     l     E      TYP  RCUT    TYP  RCUT
     0   .000     23  1.200
     0   .000     23  1.200
     1   .000     23  1.500
     1  2.500     23  1.500
     2   .000      7  1.500

 PAW_PBE C 08Apr2002                    :

 POSCAR:  C
  positions in cartesian coordinates
 exchange correlation table for  LEXCH =        8
   RHO(1)=    0.500       N(1)  =     2000
   RHO(2)=  100.500       N(2)  =     4000

 ion  position               nearest neighbor table
   1  0.371  0.538  0.002-  85 1.42 363 1.42 288 1.43
   2  0.369  0.544  0.063- 108 1.42  85 1.42   3 1.43
   3  0.338  0.595  0.061-   4 1.42   8 1.42   2 1.43
   4  0.321  0.611  0.030-   3 1.42 288 1.42   5 1.43
   5  0.278  0.629  0.028- 310 1.42  10 1.42   4 1.43
   6  0.367  0.549  0.123- 131 1.42 108 1.42   7 1.43
   7  0.335  0.599  0.121-   8 1.42  16 1.42   6 1.43
   8  0.317  0.614  0.090-   7 1.42   3 1.42   9 1.43
   9  0.274  0.629  0.089-  10 1.42  18 1.42   8 1.43
  10  0.254  0.627  0.057-   9 1.42   5 1.42  11 1.43
  11  0.212  0.603  0.056-  12 1.42  20 1.42  10 1.43
  12  0.196  0.584  0.024-  11 1.42 311 1.42  13 1.43
  13  0.168  0.528  0.023- 329 1.42  22 1.42  12 1.43
  14  0.364  0.555  0.184- 154 1.42 131 1.42  15 1.43
  15  0.331  0.602  0.182-  16 1.42  28 1.42  14 1.43
  16  0.313  0.617  0.151-  15 1.42   7 1.42  17 1.43
  17  0.270  0.629  0.149-  18 1.42  30 1.42  16 1.43
  18  0.250  0.626  0.118-  17 1.42   9 1.42  19 1.43
  19  0.209  0.600  0.116-  20 1.42  32 1.42  18 1.43
  20  0.193  0.580  0.085-  19 1.42  11 1.42  21 1.43
  21  0.166  0.522  0.083-  22 1.42  34 1.42  20 1.43
  22  0.159  0.492  0.052-  21 1.42  13 1.42  23 1.43
  23  0.155  0.420  0.050-  24 1.42  36 1.42  22 1.43
  24  0.159  0.388  0.019-  23 1.42 330 1.42  25 1.43
  25  0.178  0.324  0.017- 344 1.42  38 1.42  24 1.43
  26  0.362  0.560  0.244- 177 1.42 154 1.42  27 1.43
  27  0.328  0.605  0.242-  28 1.42  45 1.42  26 1.43
  28  0.309  0.619  0.211-  27 1.42  15 1.42  29 1.43
  29  0.266  0.629  0.209-  30 1.42  47 1.42  28 1.43
  30  0.246  0.624  0.178-  29 1.42  17 1.42  31 1.43
  31  0.205  0.596  0.176-  32 1.42  49 1.42  30 1.43
  32  0.190  0.575  0.145-  31 1.42  19 1.42  33 1.43
  33  0.164  0.516  0.143-  34 1.42  51 1.42  32 1.43
  34  0.158  0.485  0.112-  33 1.42  21 1.42  35 1.43
  35  0.155  0.414  0.110-  36 1.42  53 1.42  34 1.43
  36  0.160  0.382  0.079-  35 1.42  23 1.42  37 1.43
  37  0.181  0.319  0.078-  38 1.42  55 1.42  36 1.43
  38  0.195  0.295  0.046-  37 1.42  25 1.42  39 1.43
  39  0.233  0.260  0.045-  40 1.42  57 1.42  38 1.43
  40  0.253  0.252  0.013-  39 1.42 345 1.42  41 1.43
  41  0.297  0.254  0.012- 355 1.42  59 1.42  40 1.43
  42  0.371  0.538  0.336-  43 1.42  64 1.42 199 1.43
  43  0.359  0.565  0.305-  42 1.42 177 1.42  44 1.43
  44  0.324  0.608  0.303-  45 1.42  66 1.42  43 1.43
  45  0.305  0.621  0.272-  44 1.42  27 1.42  46 1.43
  46  0.262  0.628  0.270-  47 1.42  68 1.42  45 1.43
  47  0.242  0.623  0.239-  46 1.42  29 1.42  48 1.43
  48  0.202  0.592  0.237-  49 1.42  70 1.42  47 1.43
  49  0.187  0.570  0.206-  48 1.42  31 1.42  50 1.43
  50  0.163  0.510  0.204-  51 1.42  72 1.42  49 1.43
  51  0.157  0.479  0.173-  50 1.42  33 1.42  52 1.43
  52  0.156  0.407  0.171-  53 1.42  74 1.42  51 1.43
  53  0.161  0.375  0.140-  52 1.42  35 1.42  54 1.43
  54  0.183  0.314  0.138-  55 1.42  76 1.42  53 1.43
  55  0.198  0.291  0.107-  54 1.42  37 1.42  56 1.43
  56  0.237  0.258  0.105-  57 1.42  78 1.42  55 1.43
  57  0.257  0.251  0.074-  56 1.42  39 1.42  58 1.43
  58  0.301  0.255  0.072-  59 1.42  80 1.42  57 1.43
  59  0.320  0.266  0.041-  58 1.42  41 1.42  60 1.43
  60  0.356  0.308  0.039-  61 1.42  82 1.42  59 1.43
[...]
 350  0.364  0.323  0.887- 349 1.42 338 1.42 351 1.43
 351  0.384  0.387  0.885- 352 1.42 359 1.42 350 1.43
 352  0.387  0.419  0.854- 351 1.42 340 1.42 353 1.43
 353  0.384  0.490  0.852- 354 1.42 361 1.42 352 1.43
 354  0.377  0.521  0.821- 353 1.42 342 1.42 222 1.43
 355  0.316  0.264  0.981-  41 1.42 347 1.42 356 1.43
 356  0.353  0.303  0.979- 357 1.42  61 1.42 355 1.43
 357  0.366  0.328  0.948- 356 1.42 349 1.42 358 1.43
 358  0.385  0.393  0.946- 359 1.42 362 1.42 357 1.43
 359  0.388  0.426  0.915- 358 1.42 351 1.42 360 1.43
 360  0.383  0.497  0.913- 361 1.42 364 1.42 359 1.43
 361  0.375  0.527  0.882- 360 1.42 353 1.42 244 1.43
 362  0.388  0.432  0.975-  62 1.42 358 1.42 363 1.43
 363  0.381  0.503  0.973- 364 1.42   1 1.42 362 1.43
 364  0.373  0.533  0.942- 363 1.42 360 1.42 266 1.43

  LATTYP: Found a simple orthorhombic cell.
 ALAT       =    19.9214134216
 B/A-ratio  =     1.6250001197
 C/A-ratio  =     2.0303804144

  Lattice vectors:

 A1 = (   0.0000000000, -19.9214134216,   0.0000000000)
 A2 = (  32.3722991943,   0.0000000000,   0.0000000000)
 A3 = (   0.0000000000,   0.0000000000,  40.4480476379)

Analysis of symmetry for initial positions (statically):
 Subroutine PRICEL returns:
 Original cell was already a primitive cell.

 Routine SETGRP: Setting up the symmetry group for a
 simple orthorhombic supercell.

 Subroutine GETGRP returns: Found  1 space group operations
 (whereof  1 operations were pure point group operations)
 out of a pool of  8 trial point group operations.

The static configuration has the point symmetry C_1 .

Analysis of symmetry for dynamics (positions and initial velocities):
 Subroutine PRICEL returns:
 Original cell was already a primitive cell.

 Routine SETGRP: Setting up the symmetry group for a
 simple orthorhombic supercell.

 Subroutine GETGRP returns: Found  1 space group operations
 (whereof  1 operations were pure point group operations)
 out of a pool of  8 trial point group operations.

The dynamic configuration has the point symmetry C_1 .

 Subroutine INISYM returns: Found  1 space group operations
 (whereof  1 operations are pure point group operations),
 and found     1 'primitive' translations

                                     Primitive cell

  volume of cell :   26085.0250

  direct lattice vectors                    reciprocal lattice vectors
    32.372299194  0.000000000  0.000000000     0.030890608  0.000000000  0.000000000
     0.000000000 19.921413422  0.000000000     0.000000000  0.050197241  0.000000000
     0.000000000  0.000000000 40.448047638     0.000000000  0.000000000  0.024723072

  length of vectors
    32.372299194 19.921413422 40.448047638     0.030890608  0.050197241  0.024723072

  position of ions in fractional coordinates (direct lattice)
     0.370993369  0.538358225  0.002462495
     0.368830357  0.543875659  0.062855227
     0.338091388  0.595048527  0.061055778
     0.320513377  0.611466485  0.029922734
     0.277828976  0.628836977  0.028113045
     0.366543734  0.549268481  0.123253579
     0.334736933  0.598685571  0.121454703
     0.316822509  0.614105360  0.090318808
     0.273792551  0.629059151  0.088503999
     0.253562776  0.626917825  0.057371821
     0.212106401  0.602950170  0.055565672
     0.195581757  0.583869422  0.024429782
     0.168023102  0.528121533  0.022622329
     0.364128595  0.554526693  0.183666072
     0.331293380  0.602128753  0.181865315
     0.313074044  0.616532127  0.150722022
     0.269753360  0.629064609  0.148904796
     0.249586380  0.625783771  0.117766924
     0.208664984  0.599505711  0.115964052
     0.192554319  0.579518937  0.084824755
     0.166195892  0.522263622  0.083013894
     0.158933258  0.491512467  0.051879630
     0.154984048  0.420293028  0.050067559
     0.158741802  0.387919483  0.018932915
     0.178381990  0.323927477  0.017129201
     0.361605508  0.559649637  0.244095285
     0.327779661  0.605379728  0.242289963
     0.309267160  0.618752482  0.211139152
     0.265709512  0.628855982  0.209320005
     0.245629991  0.624444584  0.178172796
     0.205291226  0.595885746  0.176371853
     0.189617592  0.575008889  0.145228397
     0.164490265  0.516309056  0.143413282
     0.157892624  0.485167313  0.112274573
     0.155456364  0.413771241  0.110465966
     0.159899259  0.381632111  0.079325659
     0.180880452  0.318778374  0.077518636
     0.195038932  0.295201085  0.046386507
     0.233195058  0.259581064  0.044568595
     0.252864770  0.251584292  0.013437071
     0.296846927  0.253807335  0.011634276
     0.370985646  0.538136767  0.335712396
     0.358976708  0.564637894  0.304543825
     0.324204616  0.608450676  0.302731840
     0.305419958  0.620763954  0.271572947
     0.261673652  0.628423139  0.269754316
     0.241702829  0.622889648  0.238597936
     0.201992913  0.592091841  0.236795298
     0.186781742  0.570336079  0.205645683
     0.162925395  0.510257633  0.203826395
     0.156992713  0.478767626  0.172682189
     0.156074800  0.407280986  0.170876056
     0.161186696  0.375413649  0.139730909
     0.183490468  0.313775803  0.137917550
     0.198143706  0.291014268  0.106781066
     0.237033587  0.257565448  0.104964917
     0.256859053  0.250673304  0.073829569
     0.300767056  0.255366880  0.072025309
     0.319866778  0.266409278  0.040894057
     0.355729296  0.307841531  0.039074998
[...]
     0.363689033  0.322895781  0.887157698
     0.383593610  0.386664172  0.885348466
     0.387483294  0.418990562  0.854206463
     0.383847689  0.490250625  0.852402698
     0.376729116  0.521082165  0.821260204
     0.316174494  0.263768812  0.980502709
     0.352894337  0.303175408  0.978685572
     0.366117040  0.328145709  0.947553422
     0.384665442  0.392985164  0.945748839
     0.387862659  0.425520461  0.914612336
     0.382719181  0.496536458  0.912805028
     0.374942276  0.526963459  0.881671132
     0.388106885  0.432060144  0.975009620
     0.381451971  0.502744821  0.973199126
     0.373034003  0.532724019  0.942069896

  ion indices of the primitive-cell ions
   primitive index   ion index
                 1           1
                 2           2
                 3           3
                 4           4
                 5           5
                 6           6
                 7           7
                 8           8
                 9           9
                10          10
                11          11
                12          12
                13          13
                14          14
                15          15
                16          16
                17          17
                18          18
                19          19
                20          20
                21          21
                22          22
[...]
  263                  map_gather                            0.002500                  2   8
  264                  m_alltoallv_z                         0.013069                  2   8
  265                  map_scatter                           0.003370                  2   8
  266          m_sumb_d                              0.000025                          2   4
  267          pothar                                0.003397                          1   4
  268            m_sumb_d                              0.000631                        1   5
  269        forhar                                0.281567                            1   3
  270          m_sumb_d                              0.007441                          1   4
  271        brmix                                 0.016883                            1   3
  272          m_sumb_d                              0.008371                          6   4
  273          brpre                                 0.000063                          1   4
  274          setg0                                 0.001993                          1   4
  275          broyd                                 0.003495                          1   4
  276            m_sumb_d                              0.000684                       29   5
  277            brget                                 0.000734                      119   5
  278            brsav                                 0.000170                       27   5
  279          m_bcast_z                             0.000402                          1   4
  280          m_bcast_d                             0.000034                          1   4
  281        m_bcast_d                             0.166841                            2   3
  282      potlok                                0.317960                              1   2
  283        fft3d_mpi                             0.156952                           13   3
  284          fftbrc_mpi                            0.151430                         13   4
  285            fftbas_plan_mpi                       0.151418                       13   5
  286              dfftw_execute                         0.047479                     39   6
  287              map_forward                           0.053107                     14   6
  288                map_gather                            0.005398                    8   7
  289                m_alltoallv_z                         0.035206                    8   7
  290                map_scatter                           0.012400                    8   7
  291              map_backward                          0.050621                     12   6
  292                map_gather                            0.009587                    6   7
  293                m_alltoallv_z                         0.035594                    6   7
  294                map_scatter                           0.005339                    6   7
  295        ggaall_grid                           0.098900                            1   3
  296        m_sumb_d                              0.000526                            5   3
  297        pothar                                0.004123                            1   3
  298          m_sumb_d                              0.000774                          1   4
  299        m_bcast_d                             0.011785                            1   3
  300      potlok_metagga                        0.000000                              1   2
  301      set_dd_magatom                        0.000000                              1   2
  302      set_dd_paw                            0.001049                              1   2
  303        set_rsgf_all                          0.000001                            1   3
  304        m_sumb_d                              0.000473                            8   3
  305      fft3d_mpi                             0.013876                              2   2
  306        fftbrc_mpi                            0.013459                            2   3
  307          fftbas_plan_mpi                       0.013458                          2   4
  308            dfftw_execute                         0.007594                        6   5
  309            map_forward                           0.005812                        4   5
  310              map_gather                            0.001063                      2   6
  311              m_alltoallv_z                         0.001465                      2   6
  312              map_scatter                           0.003273                      2   6
  313      m_alltoall_d                         47.591665                          19858   2
  314      densta                                0.025281                              1   2
  315        m_sumb_d                              0.001128                           11   3
  316        m_alltoall_d                          0.019608                          132   3

 Flat profile

 gemm                                  413.552176      837200
 work_mul_crexp                        340.451419      837200
 proj1                                 323.802460        1824
 m_alltoallv_z                         242.976354        5539
 crexp_mul_wave                        210.289201      663936
 dfftw_execute                         134.081770       16476
 m_sumb_d                              127.149585       13327
 m_alltoall_d                          112.600569       55906
 total_time                             74.355092           1
 orth1                                  52.386868        6928
 ggemm                                  44.461566        3056
 fornl                                  43.512382           1
 vhamil                                 28.959616        2300
 lincom                                 16.846890          28
 eddav                                  15.756253          27
 fftwav_mpi                             14.438733        2829
 map_gather                             12.553156        5539
 map_scatter                            11.561727        5539
 wfinit                                 11.302112           1
 m_bcast_z                              10.794627        4201
 fftext_mpi                              8.462966        2300
 map_forward                             6.410882        6002
 lapack                                  4.354417        2300
 eccp                                    4.016141         756
 pw_charge                               3.979021         529
 pdssyex_zheevx                          3.764446          27
 vnlac0                                  2.317041        2300
 force_and_stress                        2.278108           1
 redis_pw                                2.128874        6200
 ggaall_grid                             1.810030          24
 w1_copy                                 1.408034        6900
 potlok                                  1.061080          24
 sphpro_fast                             0.771953           2
 apply_precond                           0.738922        1544
 hamiltmu                                0.682546        2300
 phase                                   0.680823          39
 m_bcast_d                               0.632646        4652
 spher                                   0.479998          20
 setup_precond                           0.440552         756
 soft_charge                             0.437652          23
 kinhamil                                0.384055        2300
 stufak                                  0.282724           1
 forhar                                  0.274126           1
 forloc                                  0.273803           1
 elmin                                   0.270584           1
 inisym                                  0.252335           1
 fftbas_plan_mpi                         0.201547        5492
 fft3d_mpi                               0.160865        5492
 brmix                                   0.090469          23
 augmentation_charge                     0.088132          23
 pothar                                  0.078926          25
 setdij_                                 0.065555          51
 choleski                                0.062472           1
 overl1                                  0.051969        2300
 setg0                                   0.046890          24
 redis_proj                              0.030495        7745
 overl                                   0.026652        3845
 map_backward                            0.025921        4982
 fft_gq                                  0.023478          23
 broyd                                   0.022163          23
 strkin                                  0.017914           1
 set_charge                              0.014593          23
 set_dd_paw                              0.014449          25
 newband                                 0.013781        2327
 chggra                                  0.013359           1
 strelo                                  0.011460           1
 brget                                   0.009329        1466
 orthch                                  0.008804           1
 densta                                  0.008430          28
 w1_projall                              0.007140        1544
 depsum                                  0.004894          23
 fftbas_mpi                              0.004746        5129
 rsp                                     0.004453           1
 strenl                                  0.002972           1
 brsav                                   0.002220         372
 fewald                                  0.002076           1
 brpre                                   0.001372          23
 truncate_high_frequency_w1              0.000839        3056
 brgrid                                  0.000369           1
 fftbrc_mpi                              0.000312         363
 rcp                                     0.000297           1
 posmap                                  0.000170           2
 proj                                    0.000167           1
 fordep                                  0.000049           1
 crpa_reader                             0.000042           1
 set_rsgf_all                            0.000016          25
 FERMAT_RAZOR                            0.000013           1
 potlok_metagga                          0.000012          24
 proall                                  0.000010           1
 vectorpot                               0.000010          24
 set_dd_magatom                          0.000004          25
 redis_pw_over_bands                     0.000000           1
 rotate_active_occupied_orbital          0.000000           1
  summed up times     2291.546149015427

 Accumulative profile

 total_time                           2291.546149           1
 elmin                                1994.550678           1
 eddav                                1958.280941          27
 hamiltmu                             1095.842441        2300
 vnlac0                                756.850850        2300
 proj1                                 656.423597        1824
 w1_projall                            557.000259        1544
 gemm                                  413.552176      837200
 fft3d_mpi                             407.977280        5492
 fftbas_plan_mpi                       407.811357        5492
 fftbas_mpi                            403.111323        5129
 work_mul_crexp                        340.451419      837200
 kinhamil                              309.297461        2300
 fftext_mpi                            308.913405        2300
 map_backward                          243.860166        4982
 m_alltoallv_z                         242.976354        5539
 crexp_mul_wave                        210.289201      663936
 force_and_stress                      139.121053           1
 dfftw_execute                         134.081770       16476
 m_sumb_d                              127.149585       13327
 fftwav_mpi                            117.108957        2829
 m_alltoall_d                          112.600569       55906
 strenl                                 91.208671           1
 orth1                                  52.386868        6928
 ggemm                                  44.461566        3056
 fornl                                  43.517232           1
 newband                                37.911077        2327
 redis_pw                               32.160116        6200
 map_forward                            29.667875        6002
 vhamil                                 28.959616        2300
 set_charge                             28.427948          23
 soft_charge                            27.964546          23
 wfinit                                 21.653090           1
 redis_proj                             21.579896        7745
 lincom                                 16.846890          28
 map_gather                             12.553156        5539
 map_scatter                            11.561727        5539
 m_bcast_z                              10.794627        4201
 proall                                 10.583703           1
 proj                                    9.902883           1
 potlok                                  7.529160          24
 fftbrc_mpi                              4.705092         363
 lapack                                  4.354417        2300
 eccp                                    4.029584         756
 pw_charge                               3.979021         529
 pdssyex_zheevx                          3.764459          27
 ggaall_grid                             1.810030          24
 w1_copy                                 1.408034        6900
 orthch                                  1.205759           1
 densta                                  1.132152          28
 sphpro_fast                             1.067653           2
 apply_precond                           0.738922        1544
 phase                                   0.680823          39
 m_bcast_d                               0.632646        4652
 spher                                   0.479998          20
 setup_precond                           0.458995         756
 augmentation_charge                     0.431380          23
 brmix                                   0.382523          23
 fft_gq                                  0.312855          23
 stufak                                  0.282724           1
 forhar                                  0.281567           1
 forloc                                  0.273866           1
 inisym                                  0.252505           1
 fewald                                  0.168451           1
 setdij_                                 0.153659          51
 pothar                                  0.099797          25
 choleski                                0.062472           1
 chggra                                  0.054746           1
 overl1                                  0.051969        2300
 setg0                                   0.046890          24
 broyd                                   0.039837          23
 set_dd_paw                              0.032837          25
 overl                                   0.026652        3845
 strkin                                  0.018547           1
 depsum                                  0.017429          23
 fordep                                  0.012079           1
 strelo                                  0.011520           1
 brget                                   0.009329        1466
 rsp                                     0.004453           1
 brsav                                   0.002220         372
 brpre                                   0.001372          23
 truncate_high_frequency_w1              0.000839        3056
 brgrid                                  0.000369           1
 rcp                                     0.000297           1
 posmap                                  0.000170           2
 crpa_reader                             0.000042           1
 set_rsgf_all                            0.000016          25
 FERMAT_RAZOR                            0.000013           1
 potlok_metagga                          0.000012          24
 vectorpot                               0.000010          24
 set_dd_magatom                          0.000004          25
 redis_pw_over_bands                     0.000000           1
 rotate_active_occupied_orbital          0.000000           1

Profiling took   1.124687  0.402235  0.004692  0.004649 seconds
Profiling took   0.938547 seconds