 vasp.6.4.2 20Jul23 (build Oct 12 2023 10:31:02) complex
 executed on              LinuxNV date 2025.05.27  22:01:54

 INCAR:
   ENCUT = 360.000000
   SIGMA = 0.050000
   EDIFF = 1.00e-06
   ALGO = Normal
   GGA = PE
   PREC = Normal
   SYSTEM = ./
   ICHARG = 2
   ISMEAR = 0
   ISPIN = 1
   ISTART = 0
   ISYM = 0
   KPAR = 2
   LMAXMIX = 4
   NELM = 100
   NPAR = 16
   LASPH = .TRUE.
   LCHARG = .FALSE.
   LWAVE = .FALSE.

 POTCAR:    PAW_PBE Ge 05Jan2001
 POTCAR:    PAW_PBE Se 06Sep2000
 POTCAR:    PAW_PBE Ge 05Jan2001
   VRHFIN =Ge: s2p2

   TITEL  = PAW_PBE Ge 05Jan2001
   POMASS =   72.610; ZVAL   =    4.000    mass and valenz
   ENMAX  =  173.807; ENMIN  =  130.355 eV

 POTCAR:    PAW_PBE Se 06Sep2000
   VRHFIN =Se: s2p4

   TITEL  = PAW_PBE Se 06Sep2000
   POMASS =   78.960; ZVAL   =    6.000    mass and valenz
   ENMAX  =  211.555; ENMIN  =  158.666 eV

  PAW_PBE Ge 05Jan2001                  :
  PAW_PBE Se 06Sep2000                  :

 POSCAR: Ge Se
  positions in cartesian coordinates
 exchange correlation table for  LEXCH =        8
   RHO(1)=    0.500       N(1)  =     2000
   RHO(2)=  100.500       N(2)  =     4000

 ion  position               nearest neighbor table
   1  0.055  0.250  0.115-   6 2.59   6 2.59   5 2.63   6 2.81   6 2.81
   2  0.555  0.750  0.385-   5 2.59   5 2.59   6 2.63   5 2.81   5 2.81
   3  0.945  0.750  0.885-   8 2.59   8 2.59   7 2.63   8 2.81   8 2.81
   4  0.445  0.250  0.615-   7 2.59   7 2.59   8 2.63   7 2.81   7 2.81
   5  0.015  0.250  0.351-   2 2.59   2 2.59   1 2.63   2 2.81   2 2.81
   6  0.515  0.750  0.149-   1 2.59   1 2.59   2 2.63   1 2.81   1 2.81
   7  0.985  0.750  0.649-   4 2.59   4 2.59   3 2.63   4 2.81   4 2.81
   8  0.485  0.250  0.851-   3 2.59   3 2.59   4 2.63   3 2.81   3 2.81

IMPORTANT INFORMATION: All symmetrisations will be switched off!
NOSYMM: (Re-)initialisation of all symmetry stuff for point group C_1.

                                     Primitive cell

  volume of cell :     158.7209

  direct lattice vectors                    reciprocal lattice vectors
     3.850000000  0.000000000  0.000000000     0.259740260  0.000000000  0.000000000
     0.000000000  3.700000000  0.000000000     0.000000000  0.270270270  0.000000000
     0.000000000  0.000000000 11.142221000     0.000000000  0.000000000  0.089748713

  length of vectors
     3.850000000  3.700000000 11.142221000     0.259740260  0.270270270  0.089748713

  position of ions in fractional coordinates (direct lattice)
     0.054731101  0.250000000  0.114991457
     0.554731101  0.750000000  0.385008543
     0.945268899  0.750000000  0.885008543
     0.445268899  0.250000000  0.614991457
     0.014950974  0.250000000  0.350807442
     0.514950974  0.750000000  0.149192558
     0.985049026  0.750000000  0.649192558
     0.485049026  0.250000000  0.850807442

  ion indices of the primitive-cell ions
   primitive index   ion index
                 1           1
                 2           2
                 3           3
                 4           4
                 5           5
                 6           6
                 7           7
                 8           8

 KPOINTS: KPOINTS created by Atomic Simulation Env

Automatic generation of k-mesh.
 Grid dimensions read from file:
 generate k-points for:    6    6    2

 Generating k-lattice:

  Cartesian coordinates                     Fractional coordinates (reciprocal lattice)
     0.043290043  0.000000000  0.000000000     0.166666667  0.000000000  0.000000000
     0.000000000  0.045045045  0.000000000     0.000000000  0.166666667  0.000000000
     0.000000000  0.000000000  0.044874357     0.000000000  0.000000000  0.500000000

  Length of vectors
     0.043290043  0.045045045  0.044874357

  Shift w.r.t. Gamma in fractional coordinates (k-lattice)
     0.000000000  0.000000000  0.000000000

 Subroutine IBZKPT returns following result:

 Found     40 irreducible k-points:

 Following reciprocal coordinates:
            Coordinates               Weight
  0.000000  0.000000  0.000000      1.000000
  0.166667  0.000000  0.000000      2.000000
  0.333333  0.000000  0.000000      2.000000
  0.500000  0.000000  0.000000      1.000000
  0.000000  0.166667  0.000000      2.000000
  0.166667  0.166667  0.000000      2.000000
 -0.166667  0.166667  0.000000      2.000000
  0.333333  0.166667  0.000000      2.000000
 -0.333333  0.166667  0.000000      2.000000
  0.500000  0.166667  0.000000      2.000000
  0.000000  0.333333  0.000000      2.000000
  0.166667  0.333333  0.000000      2.000000
 -0.166667  0.333333  0.000000      2.000000
  0.333333  0.333333  0.000000      2.000000
 -0.333333  0.333333  0.000000      2.000000
  0.500000  0.333333  0.000000      2.000000
  0.000000  0.500000  0.000000      1.000000
  0.166667  0.500000  0.000000      2.000000
  0.333333  0.500000  0.000000      2.000000
  0.500000  0.500000  0.000000      1.000000
  0.000000  0.000000  0.500000      1.000000
  0.166667  0.000000  0.500000      2.000000
  0.333333  0.000000  0.500000      2.000000
  0.500000  0.000000  0.500000      1.000000
  0.000000  0.166667  0.500000      2.000000
  0.166667  0.166667  0.500000      2.000000
 -0.166667  0.166667  0.500000      2.000000
  0.333333  0.166667  0.500000      2.000000
 -0.333333  0.166667  0.500000      2.000000
  0.500000  0.166667  0.500000      2.000000
  0.000000  0.333333  0.500000      2.000000
  0.166667  0.333333  0.500000      2.000000
 -0.166667  0.333333  0.500000      2.000000
  0.333333  0.333333  0.500000      2.000000
 -0.333333  0.333333  0.500000      2.000000
  0.500000  0.333333  0.500000      2.000000
  0.000000  0.500000  0.500000      1.000000
  0.166667  0.500000  0.500000      2.000000
  0.333333  0.500000  0.500000      2.000000
  0.500000  0.500000  0.500000      1.000000

 Following cartesian coordinates:
            Coordinates               Weight
  0.000000  0.000000  0.000000      1.000000
  0.043290  0.000000  0.000000      2.000000
  0.086580  0.000000  0.000000      2.000000
  0.129870  0.000000  0.000000      1.000000
  0.000000  0.045045  0.000000      2.000000
  0.043290  0.045045  0.000000      2.000000
 -0.043290  0.045045  0.000000      2.000000
  0.086580  0.045045  0.000000      2.000000
 -0.086580  0.045045  0.000000      2.000000
  0.129870  0.045045  0.000000      2.000000
  0.000000  0.090090  0.000000      2.000000
  0.043290  0.090090  0.000000      2.000000
 -0.043290  0.090090  0.000000      2.000000
  0.086580  0.090090  0.000000      2.000000
 -0.086580  0.090090  0.000000      2.000000
  0.129870  0.090090  0.000000      2.000000
  0.000000  0.135135  0.000000      1.000000
  0.043290  0.135135  0.000000      2.000000
  0.086580  0.135135  0.000000      2.000000
  0.129870  0.135135  0.000000      1.000000
  0.000000  0.000000  0.044874      1.000000
  0.043290  0.000000  0.044874      2.000000
  0.086580  0.000000  0.044874      2.000000
  0.129870  0.000000  0.044874      1.000000
  0.000000  0.045045  0.044874      2.000000
  0.043290  0.045045  0.044874      2.000000
 -0.043290  0.045045  0.044874      2.000000
  0.086580  0.045045  0.044874      2.000000
 -0.086580  0.045045  0.044874      2.000000
  0.129870  0.045045  0.044874      2.000000
  0.000000  0.090090  0.044874      2.000000
  0.043290  0.090090  0.044874      2.000000
 -0.043290  0.090090  0.044874      2.000000
  0.086580  0.090090  0.044874      2.000000
 -0.086580  0.090090  0.044874      2.000000
  0.129870  0.090090  0.044874      2.000000
  0.000000  0.135135  0.044874      1.000000
  0.043290  0.135135  0.044874      2.000000
  0.086580  0.135135  0.044874      2.000000
  0.129870  0.135135  0.044874      1.000000

 SYSTEM =  ./
 POSCAR =  Ge Se

 Startparameter for this run:
   NWRITE =      2    write-flag & timer
   PREC   = normal    normal or accurate (medium, high low for compatibility)
   ISTART =      0    job   : 0-new  1-cont  2-samecut
   ICHARG =      2    charge: 1-file 2-atom 10-const
   ISPIN  =      1    spin polarized calculation?
   LNONCOLLINEAR =      F non collinear calculations
   LSORBIT =      F    spin-orbit coupling
   INIWAV =      1    electr: 0-lowe 1-rand  2-diag
   LASPH  =      T    aspherical Exc in radial PAW
 Electronic Relaxation 1
   ENCUT  =  360.0 eV  26.46 Ry    5.14 a.u.   5.96  5.72 17.24*2*pi/ulx,y,z
   ENINI  =  360.0     initial cutoff
   ENAUG  =  446.8 eV  augmentation charge cutoff
   NELM   =    100;   NELMIN=  2; NELMDL= -5     # of ELM steps
   EDIFF  = 0.1E-05   stopping-criterion for ELM
   LREAL  =      F    real-space projection
   NLSPLINE    = F    spline interpolate recip. space projectors
   LCOMPAT=      F    compatible to vasp.4.4
   GGA_COMPAT  = T    GGA compatible to vasp.4.4-vasp.4.6
   LMAXPAW     = -100 max onsite density
   LMAXMIX     =    4 max onsite mixed and CHGCAR
   VOSKOWN=      0    Vosko Wilk Nusair interpolation
   ROPT   =    0.00000   0.00000
 Ionic relaxation
   EDIFFG = 0.1E-04   stopping-criterion for IOM
   NSW    =      0    number of steps for IOM
   NBLOCK =      1;   KBLOCK =      1    inner block; outer block
   IBRION =     -1    ionic relax: 0-MD 1-quasi-New 2-CG
   NFREE  =      0    steps in history (QN), initial steepest desc. (CG)
   ISIF   =      2    stress and relaxation
   IWAVPR =     10    prediction:  0-non 1-charg 2-wave 3-comb
   ISYM   =      0    0-nonsym 1-usesym 2-fastsym
   LCORR  =      T    Harris-Foulkes like correction to forces

   POTIM  = 0.5000    time-step for ionic-motion
   TEIN   =    0.0    initial temperature
   TEBEG  =    0.0;   TEEND  =   0.0 temperature during run
   SMASS  =  -3.00    Nose mass-parameter (am)
   estimated Nose-frequenzy (Omega)   =  0.10E-29 period in steps = 0.13E+47 mass=  -0.339E-27a.u.
   SCALEE = 1.0000    scale energy and forces
   NPACO  =    256;   APACO  = 10.0  distance and # of slots for P.C.
   PSTRESS=    0.0 pullay stress

  Mass of Ions in am
   POMASS =  72.61 78.96
  Ionic Valenz
   ZVAL   =   4.00  6.00
  Atomic Wigner-Seitz radii
  virtual crystal weights
   VCA    =   1.00  1.00
   NELECT =      40.0000    total number of electrons
   NUPDOWN=      -1.0000    fix difference up-down

 DOS related values:
   EMIN   =  10.00;   EMAX   =-10.00  energy-range for DOS
   EFERMI =   0.00;   METHOD = LEGACY
   ISMEAR =     0;   SIGMA  =   0.05  broadening in eV -4-tet -1-fermi 0-gaus

 Electronic relaxation 2 (details)
   IALGO  =     38    algorithm
   LDIAG  =      T    sub-space diagonalisation (order eigenvalues)
   LSUBROT=      F    optimize rotation matrix (better conditioning)
   TURBO    =      0    0=normal 1=particle mesh
   IRESTART =      0    0=no restart 2=restart with 2 vectors
   NREBOOT  =      0    no. of reboots
   NMIN     =      0    reboot dimension
   EREF     =   0.00    reference energy to select bands
   IMIX   =      4    mixing-type and parameters
     AMIX     =   0.40;   BMIX     =  1.00
     AMIX_MAG =   1.60;   BMIX_MAG =  1.00
     AMIN     =   0.10
     WC   =   100.;   INIMIX=   1;  MIXPRE=   1;  MAXMIX= -45

 Intra band minimization:
   WEIMIN = 0.0000     energy-eigenvalue tresh-hold
   EBREAK =  0.78E-08  absolut break condition
[...]
  -0.04329004  0.04504505  0.04487436       0.028
   0.08658009  0.04504505  0.04487436       0.028
  -0.08658009  0.04504505  0.04487436       0.028
   0.12987013  0.04504505  0.04487436       0.028
   0.00000000  0.09009009  0.04487436       0.028
   0.04329004  0.09009009  0.04487436       0.028
  -0.04329004  0.09009009  0.04487436       0.028
   0.08658009  0.09009009  0.04487436       0.028
  -0.08658009  0.09009009  0.04487436       0.028
   0.12987013  0.09009009  0.04487436       0.028
   0.00000000  0.13513514  0.04487436       0.014
   0.04329004  0.13513514  0.04487436       0.028
   0.08658009  0.13513514  0.04487436       0.028
   0.12987013  0.13513514  0.04487436       0.014

 k-points in reciprocal lattice and weights: KPOINTS created by Atomic Simulation Env
   0.00000000  0.00000000  0.00000000       0.014
   0.16666667  0.00000000  0.00000000       0.028
   0.33333333  0.00000000  0.00000000       0.028
   0.50000000  0.00000000  0.00000000       0.014
   0.00000000  0.16666667  0.00000000       0.028
   0.16666667  0.16666667  0.00000000       0.028
  -0.16666667  0.16666667  0.00000000       0.028
   0.33333333  0.16666667  0.00000000       0.028
  -0.33333333  0.16666667  0.00000000       0.028
   0.50000000  0.16666667  0.00000000       0.028
   0.00000000  0.33333333  0.00000000       0.028
   0.16666667  0.33333333  0.00000000       0.028
  -0.16666667  0.33333333  0.00000000       0.028
   0.33333333  0.33333333  0.00000000       0.028
  -0.33333333  0.33333333  0.00000000       0.028
   0.50000000  0.33333333  0.00000000       0.028
   0.00000000  0.50000000  0.00000000       0.014
   0.16666667  0.50000000  0.00000000       0.028
   0.33333333  0.50000000  0.00000000       0.028
   0.50000000  0.50000000  0.00000000       0.014
   0.00000000  0.00000000  0.50000000       0.014
   0.16666667  0.00000000  0.50000000       0.028
   0.33333333  0.00000000  0.50000000       0.028
   0.50000000  0.00000000  0.50000000       0.014
   0.00000000  0.16666667  0.50000000       0.028
   0.16666667  0.16666667  0.50000000       0.028
  -0.16666667  0.16666667  0.50000000       0.028
   0.33333333  0.16666667  0.50000000       0.028
  -0.33333333  0.16666667  0.50000000       0.028
   0.50000000  0.16666667  0.50000000       0.028
   0.00000000  0.33333333  0.50000000       0.028
   0.16666667  0.33333333  0.50000000       0.028
  -0.16666667  0.33333333  0.50000000       0.028
   0.33333333  0.33333333  0.50000000       0.028
  -0.33333333  0.33333333  0.50000000       0.028
   0.50000000  0.33333333  0.50000000       0.028
   0.00000000  0.50000000  0.50000000       0.014
   0.16666667  0.50000000  0.50000000       0.028
   0.33333333  0.50000000  0.50000000       0.028
   0.50000000  0.50000000  0.50000000       0.014

 position of ions in fractional coordinates (direct lattice)
   0.05473110  0.25000000  0.11499146
   0.55473110  0.75000000  0.38500854
   0.94526890  0.75000000  0.88500854
   0.44526890  0.25000000  0.61499146
   0.01495097  0.25000000  0.35080744
   0.51495097  0.75000000  0.14919256
   0.98504903  0.75000000  0.64919256
   0.48504903  0.25000000  0.85080744

 position of ions in cartesian coordinates  (Angst):
   0.21071474  0.92500000  1.28126023
   2.13571474  2.77500000  4.28985027
   3.63928526  2.77500000  9.86096077
   1.71428526  0.92500000  6.85237073
   0.05756125  0.92500000  3.90877405
   1.98256125  2.77500000  1.66233645
   3.79243875  2.77500000  7.23344695
   1.86743875  0.92500000  9.47988455

 k-point   1 :   0.0000 0.0000 0.0000  plane waves:    2439
 k-point   2 :   0.1667 0.0000 0.0000  plane waves:    2466
 k-point   3 :   0.3333 0.0000 0.0000  plane waves:    2478
 k-point   4 :   0.5000 0.0000 0.0000  plane waves:    2476
 k-point   5 :   0.0000 0.1667 0.0000  plane waves:    2449
 k-point   6 :   0.1667 0.1667 0.0000  plane waves:    2461
 k-point   7 :  -0.1667 0.1667 0.0000  plane waves:    2461
 k-point   8 :   0.3333 0.1667 0.0000  plane waves:    2466
 k-point   9 :  -0.3333 0.1667 0.0000  plane waves:    2466
 k-point  10 :   0.5000 0.1667 0.0000  plane waves:    2476
 k-point  11 :   0.0000 0.3333 0.0000  plane waves:    2434
 k-point  12 :   0.1667 0.3333 0.0000  plane waves:    2462
 k-point  13 :  -0.1667 0.3333 0.0000  plane waves:    2462
 k-point  14 :   0.3333 0.3333 0.0000  plane waves:    2471
 k-point  15 :  -0.3333 0.3333 0.0000  plane waves:    2471
 k-point  16 :   0.5000 0.3333 0.0000  plane waves:    2472
 k-point  17 :   0.0000 0.5000 0.0000  plane waves:    2452
 k-point  18 :   0.1667 0.5000 0.0000  plane waves:    2470
 k-point  19 :   0.3333 0.5000 0.0000  plane waves:    2464
 k-point  20 :   0.5000 0.5000 0.0000  plane waves:    2472
 k-point  21 :   0.0000 0.0000 0.5000  plane waves:    2442
 k-point  22 :   0.1667 0.0000 0.5000  plane waves:    2464
 k-point  23 :   0.3333 0.0000 0.5000  plane waves:    2466
 k-point  24 :   0.5000 0.0000 0.5000  plane waves:    2496
 k-point  25 :   0.0000 0.1667 0.5000  plane waves:    2446
 k-point  26 :   0.1667 0.1667 0.5000  plane waves:    2464
 k-point  27 :  -0.1667 0.1667 0.5000  plane waves:    2464
 k-point  28 :   0.3333 0.1667 0.5000  plane waves:    2460
 k-point  29 :  -0.3333 0.1667 0.5000  plane waves:    2460
 k-point  30 :   0.5000 0.1667 0.5000  plane waves:    2464
 k-point  31 :   0.0000 0.3333 0.5000  plane waves:    2448
 k-point  32 :   0.1667 0.3333 0.5000  plane waves:    2452
 k-point  33 :  -0.1667 0.3333 0.5000  plane waves:    2452
 k-point  34 :   0.3333 0.3333 0.5000  plane waves:    2468
 k-point  35 :  -0.3333 0.3333 0.5000  plane waves:    2468
 k-point  36 :   0.5000 0.3333 0.5000  plane waves:    2472
 k-point  37 :   0.0000 0.5000 0.5000  plane waves:    2448
 k-point  38 :   0.1667 0.5000 0.5000  plane waves:    2444
 k-point  39 :   0.3333 0.5000 0.5000  plane waves:    2476
 k-point  40 :   0.5000 0.5000 0.5000  plane waves:    2496

 maximum and minimum number of plane-waves per node :       640      584

 maximum number of plane-waves:      2496
 maximum index in each direction:
   IXMAX=    6   IYMAX=    5   IZMAX=   17
   IXMIN=   -6   IYMIN=   -6   IZMIN=  -17

 parallel 3D FFT for wavefunctions:
    minimum data exchange during FFTs selected (reduces bandwidth)
 parallel 3D FFT for charge:
    minimum data exchange during FFTs selected (reduces bandwidth)

 Broyden mixing: mesh for mixing (old mesh)
   NGX = 11   NGY = 11   NGZ = 35
  (NGX  = 36   NGY  = 36   NGZ  =108)
  gives a total of   4235 points

 initial charge density was supplied:
 charge density of overlapping atoms calculated
 number of electron      40.0000000 magnetization
 keeping initial charge density in first step

 Maximum index for augmentation-charges           392 (set IRDMAX)

 First call to EWALD:  gamma=   0.327
 Maximum number of real-space cells 4x 4x 2
 Maximum number of reciprocal cells 2x 2x 5

--------------------------------------- Ionic step        1  -------------------------------------------

--------------------------------------- Iteration      1(   1)  ---------------------------------------

 eigenvalue-minimisations  :  2560
 total energy-change (2. order) : 0.1264903E+03  (-0.1329397E+04)
 number of electron      40.0000000 magnetization
 augmentation part       40.0000000 magnetization

 Free energy of the ion-electron system (eV)
  alpha Z        PSCENC =       106.75620771
  Ewald energy   TEWEN  =     -1540.17354885
  -Hartree energ DENC   =       -89.06133574
  -exchange      EXHF   =         0.00000000
  -V(xc)+E(xc)   XCENC  =       -30.70041291
  PAW double counting   =      1193.78262552    -1080.73714043
  entropy T*S    EENTRO =        -0.00361752
  eigenvalues    EBANDS =       118.14290008
  atomic energy  EATOM  =      1448.48460880
  Solvation  Ediel_sol  =         0.00000000
  free energy    TOTEN  =       126.49028664 eV

  energy without entropy =      126.49390417  energy(sigma->0) =      126.49209541

[...]

 eigenvalue-minimisations  :  3696
 total energy-change (2. order) :-0.1521918E+03  (-0.1479505E+03)
 number of electron      40.0000000 magnetization
 augmentation part       40.0000000 magnetization

[...]

 Broyden mixing:
  rms(total) = 0.73615E+00    rms(broyden)= 0.73614E+00
  rms(prec ) = 0.78611E+00
  weight for this iteration     100.00

[...]

 eigenvalues of (default mixing * dielectric matrix)
  average eigenvalue GAMMA=   2.4064
  2.4064

[...]

 eigenvalue-minimisations  :  3024
 total energy-change (2. order) : 0.4772916E-02  (-0.2937084E-02)
 number of electron      40.0000032 magnetization
 augmentation part       -7.3523895 magnetization

[...]

 Broyden mixing:
  rms(total) = 0.65557E-03    rms(broyden)= 0.65556E-03
  rms(prec ) = 0.82487E-03
  weight for this iteration     100.00

 eigenvalues of (default mixing * dielectric matrix)
  average eigenvalue GAMMA=   1.6806
  2.5674  2.5674  1.6654  1.1815  1.1815  0.9205

[...]

--------------------------------------- Iteration      1(  12)  ---------------------------------------

 eigenvalue-minimisations  :  2912
 total energy-change (2. order) :-0.1656078E-06  (-0.3325847E-06)
 number of electron      40.0000032 magnetization
 augmentation part       -7.3519990 magnetization

 Free energy of the ion-electron system (eV)
  alpha Z        PSCENC =       106.75620771
  Ewald energy   TEWEN  =     -1540.17354885
  -Hartree energ DENC   =       -95.28600930
  -exchange      EXHF   =         0.00000000
  -V(xc)+E(xc)   XCENC  =       -29.62074333
  PAW double counting   =      2102.08638825    -1989.88523413
  entropy T*S    EENTRO =        -0.00392446
  eigenvalues    EBANDS =       -35.02039057
  atomic energy  EATOM  =      1448.48460880
  Solvation  Ediel_sol  =         0.00000000
  free energy    TOTEN  =       -32.66264590 eV

  energy without entropy =      -32.65872144  energy(sigma->0) =      -32.66068367

 average (electrostatic) potential at core
  the test charge radii are     1.1631  1.0808
  (the norm of the test charge is              1.0000)
       1 -31.6771       2 -31.6771       3 -31.6771       4 -31.6771       5 -53.3121
       6 -53.3121       7 -53.3121       8 -53.3121

 E-fermi :   5.2074     XC(G=0): -10.2474     alpha+bet :-10.6353

 Fermi energy:         5.2074437252

 k-point     1 :       0.0000    0.0000    0.0000
  band No.  band energies     occupation
      1     -10.1593      2.00000
      2      -9.7521      2.00000
      3      -8.6421      2.00000
      4      -7.8993      2.00000
      5      -2.5302      2.00000
      6      -1.6555      2.00000
      7      -1.5387      2.00000
      8       0.4257      2.00000
      9       0.4969      2.00000
     10       0.9500      2.00000
     11       1.2866      2.00000
     12       1.3375      2.00000
     13       1.6583      2.00000
     14       1.8085      2.00000
     15       2.5935      2.00000
     16       2.6647      2.00000
     17       2.9782      2.00000
     18       3.4204      2.00000
     19       4.1703      2.00000
     20       5.1104      1.99395
     21       5.2713      0.07092
     22       8.3269      0.00000
     23       8.6135      0.00000
     24       9.0615      0.00000
     25       9.2337      0.00000
     26       9.4039      0.00000
     27       9.6781      0.00000
     28      10.2603      0.00000
     29      10.5617      0.00000
     30      10.6773      0.00000
     31      10.8233      0.00000
     32      10.9086      0.00000

[...]

 k-point    40 :       0.5000    0.5000    0.5000
  band No.  band energies     occupation
      1      -7.6832      2.00000
      2      -7.6832      2.00000
      3      -7.6832      2.00000
      4      -7.6832      2.00000
      5      -2.6253      2.00000
      6      -2.6253      2.00000
      7      -2.6253      2.00000
      8      -2.6253      2.00000
      9      -1.0141      2.00000
     10      -1.0141      2.00000
     11      -1.0141      2.00000
     12      -1.0141      2.00000
     13       0.2160      2.00000
     14       0.2160      2.00000
     15       0.2160      2.00000
     16       0.2160      2.00000
     17       3.0738      2.00000
     18       3.0738      2.00000
     19       3.0738      2.00000
     20       3.0738      2.00000
     21       7.1068      0.00000
     22       7.1068      0.00000
     23       7.1068      0.00000
     24       7.1068      0.00000
     25      10.9155      0.00000
     26      10.9155      0.00000
     27      10.9155      0.00000
     28      10.9155      0.00000
     29      12.1251      0.00000
     30      12.1251      0.00000
     31      12.1251      0.00000
     32      12.1251      0.00000

 soft charge-density along one line, spin component            1
         0         1         2         3         4         5         6         7         8         9
 total charge-density along one line

------------------------ aborting loop because EDIFF is reached ----------------------------------------

  FORCE on cell =-STRESS in cart. coord.  units (eV):
  Direction    XX          YY          ZZ          XY          YZ          ZX
  Alpha Z   106.75621   106.75621   106.75621
  Ewald    -478.28315  -478.40717  -583.48550     0.00000     0.00000     0.00000
  Hartree    44.13770    44.96204     6.18911     0.00000    -0.00000    -0.00000
  E(xc)    -143.30326  -143.40755  -143.79839     0.00000     0.00000     0.00000
  Local    -153.34517  -154.54339   -21.56607     0.00000     0.00000     0.00000
  n-local   244.28296   244.91050   244.41524    -0.00000    -0.00000    -0.00000
  augment   -11.41646   -11.53260   -12.11032     0.00000    -0.00000     0.00000
  Kinetic   403.30428   404.18553   406.51055    -0.00000     0.00000     0.00000
  Fock        0.00000     0.00000     0.00000     0.00000     0.00000     0.00000
  Total      12.13309    12.92357     2.91083    -0.00000     0.00000     0.00000
  in kB     122.47512   130.45444    29.38283    -0.00000     0.00001     0.00000

 VOLUME and BASIS-vectors are now :
  energy-cutoff  :      360.00
  volume of cell :      158.72
      direct lattice vectors                 reciprocal lattice vectors
     3.850000000  0.000000000  0.000000000     0.259740260  0.000000000  0.000000000
     0.000000000  3.700000000  0.000000000     0.000000000  0.270270270  0.000000000
     0.000000000  0.000000000 11.142221000     0.000000000  0.000000000  0.089748713

  length of vectors
     3.850000000  3.700000000 11.142221000     0.259740260  0.270270270  0.089748713

 FORCES acting on ions
    electron-ion (+dipol)            ewald-force                    non-local-force                 convergence-correction
   0.548E+01 -.309E-08 0.251E+02   -.643E+01 0.135E-14 -.276E+02   0.942E+00 0.389E-07 0.252E+01   0.145E-03 -.164E-08 -.355E-03
   0.548E+01 -.763E-07 -.251E+02   -.643E+01 -.229E-14 0.276E+02   0.942E+00 0.143E-07 -.252E+01   0.146E-03 0.820E-07 0.353E-03
   -.548E+01 0.489E-07 -.251E+02   0.643E+01 -.199E-15 0.276E+02   -.942E+00 -.628E-07 -.252E+01   -.145E-03 -.539E-07 0.316E-03
   -.548E+01 -.197E-06 0.251E+02   0.643E+01 0.325E-14 -.276E+02   -.942E+00 0.668E-07 0.252E+01   -.145E-03 0.386E-07 -.314E-03
   -.528E+01 0.165E-05 -.259E+02   0.592E+01 0.439E-14 0.266E+02   -.642E+00 -.801E-06 -.676E+00   -.116E-04 -.597E-06 0.124E-02
   -.528E+01 0.925E-06 0.259E+02   0.592E+01 -.234E-14 -.266E+02   -.642E+00 -.540E-06 0.676E+00   -.107E-04 -.148E-06 -.125E-02
   0.528E+01 -.106E-05 0.259E+02   -.592E+01 -.371E-14 -.266E+02   0.642E+00 0.574E-06 0.676E+00   0.110E-04 0.408E-06 -.120E-02
   0.528E+01 -.146E-05 -.259E+02   -.592E+01 0.114E-14 0.266E+02   0.642E+00 0.817E-06 -.676E+00   0.950E-05 0.499E-06 0.120E-02
   -.241E-05 -.167E-06 -.119E-05   -.533E-14 0.159E-14 0.213E-13   0.282E-05 0.106E-06 0.534E-06   -.820E-06 0.227E-06 0.251E-06

 POSITION                                       TOTAL-FORCE (eV/Angst)
      0.21071      0.92500      1.28126        -0.008005      0.000000      0.000643
      2.13571      2.77500      4.28985        -0.008005     -0.000000     -0.000643
      3.63929      2.77500      9.86096         0.008005     -0.000000     -0.000643
      1.71429      0.92500      6.85237         0.008005     -0.000000      0.000643
      0.05756      0.92500      3.90877         0.002252      0.000000      0.005194
      1.98256      2.77500      1.66234         0.002252      0.000000     -0.005192
      3.79244      2.77500      7.23345        -0.002252     -0.000000     -0.005193
      1.86744      0.92500      9.47988        -0.002251     -0.000000      0.005191
    total drift:                               -0.000000      0.000000     -0.000000

  FREE ENERGIE OF THE ION-ELECTRON SYSTEM (eV)
  free  energy   TOTEN  =       -32.66264590 eV

  energy  without entropy=      -32.65872144  energy(sigma->0) =      -32.66068367