 vasp.6.4.2 20Jul23 (build Oct 12 2023 10:31:02) complex
 executed on              LinuxNV date 2025.05.28  01:01:02

 INCAR:
   ENCUT = 360.000000
   SIGMA = 0.050000
   EDIFF = 1.00e-06
   ALGO = Normal
   GGA = PE
   PREC = Normal
   SYSTEM = ./
   ICHARG = 2
   ISMEAR = 0
   ISPIN = 1
   ISTART = 0
   ISYM = 0
   KPAR = 2
   LMAXMIX = 4
   NELM = 100
   NPAR = 16
   LASPH = .TRUE.
   LCHARG = .FALSE.
   LWAVE = .FALSE.

 POTCAR:    PAW_PBE Ge 05Jan2001
 POTCAR:    PAW_PBE Se 06Sep2000
 POTCAR:    PAW_PBE Ge 05Jan2001
   VRHFIN =Ge: s2p2

   TITEL  = PAW_PBE Ge 05Jan2001
   POMASS =   72.610; ZVAL   =    4.000    mass and valenz
   ENMAX  =  173.807; ENMIN  =  130.355 eV

 POTCAR:    PAW_PBE Se 06Sep2000
   VRHFIN =Se: s2p4

   TITEL  = PAW_PBE Se 06Sep2000
   POMASS =   78.960; ZVAL   =    6.000    mass and valenz
   ENMAX  =  211.555; ENMIN  =  158.666 eV

  PAW_PBE Ge 05Jan2001                  :
  PAW_PBE Se 06Sep2000                  :

 POSCAR: Ge Se
  positions in cartesian coordinates
 exchange correlation table for  LEXCH =        8
   RHO(1)=    0.500       N(1)  =     2000
   RHO(2)=  100.500       N(2)  =     4000

 ion  position               nearest neighbor table
   1  0.250  0.255  0.126-   6 2.76   6 2.76   5 2.77   6 2.79   6 2.79   8 2.80
   2  0.750  0.755  0.374-   5 2.76   5 2.76   6 2.77   5 2.79   5 2.79   7 2.80
   3  0.750  0.745  0.874-   8 2.76   8 2.76   7 2.77   8 2.79   8 2.79   6 2.80
   4  0.250  0.245  0.626-   7 2.76   7 2.76   8 2.77   7 2.79   7 2.79   5 2.80
   5  0.250  0.250  0.375-   2 2.76   2 2.76   1 2.77   2 2.79   2 2.79   4 2.80
   6  0.750  0.750  0.125-   1 2.76   1 2.76   2 2.77   1 2.79   1 2.79   3 2.80
   7  0.750  0.750  0.625-   4 2.76   4 2.76   3 2.77   4 2.79   4 2.79   2 2.80
   8  0.250  0.250  0.875-   3 2.76   3 2.76   4 2.77   3 2.79   3 2.79   1 2.80

IMPORTANT INFORMATION: All symmetrisations will be switched off!
NOSYMM: (Re-)initialisation of all symmetry stuff for point group C_1.

                                     Primitive cell

  volume of cell :     171.6459

  direct lattice vectors                    reciprocal lattice vectors
     3.900000000  0.000000000  0.000000000     0.256410256  0.000000000  0.000000000
     0.000000000  3.950000000  0.000000000     0.000000000  0.253164557  0.000000000
     0.000000000  0.000000000 11.142221000     0.000000000  0.000000000  0.089748713

  length of vectors
     3.900000000  3.950000000 11.142221000     0.256410256  0.253164557  0.089748713

  position of ions in fractional coordinates (direct lattice)
     0.250000000  0.254650481  0.125873946
     0.750000000  0.754650481  0.374126054
     0.750000000  0.745349519  0.874126054
     0.250000000  0.245349519  0.625873946
     0.250000000  0.249965957  0.374533229
     0.750000000  0.749965957  0.125466771
     0.750000000  0.750034043  0.625466771
     0.250000000  0.250034043  0.874533229

  ion indices of the primitive-cell ions
   primitive index   ion index
                 1           1
                 2           2
                 3           3
                 4           4
                 5           5
                 6           6
                 7           7
                 8           8

 KPOINTS: KPOINTS created by Atomic Simulation Env

Automatic generation of k-mesh.
 Grid dimensions read from file:
 generate k-points for:    6    6    2

 Generating k-lattice:

  Cartesian coordinates                     Fractional coordinates (reciprocal lattice)
     0.042735043  0.000000000  0.000000000     0.166666667  0.000000000  0.000000000
     0.000000000  0.042194093  0.000000000     0.000000000  0.166666667  0.000000000
     0.000000000  0.000000000  0.044874357     0.000000000  0.000000000  0.500000000

  Length of vectors
     0.042735043  0.042194093  0.044874357

  Shift w.r.t. Gamma in fractional coordinates (k-lattice)
     0.000000000  0.000000000  0.000000000

 Subroutine IBZKPT returns following result:

 Found     40 irreducible k-points:

 Following reciprocal coordinates:
            Coordinates               Weight
  0.000000  0.000000  0.000000      1.000000
  0.166667  0.000000  0.000000      2.000000
  0.333333  0.000000  0.000000      2.000000
  0.500000  0.000000  0.000000      1.000000
  0.000000  0.166667  0.000000      2.000000
  0.166667  0.166667  0.000000      2.000000
  0.166667 -0.166667  0.000000      2.000000
  0.333333  0.166667  0.000000      2.000000
  0.333333 -0.166667  0.000000      2.000000
  0.500000  0.166667  0.000000      2.000000
  0.000000  0.333333  0.000000      2.000000
  0.166667  0.333333  0.000000      2.000000
  0.166667 -0.333333  0.000000      2.000000
  0.333333  0.333333  0.000000      2.000000
  0.333333 -0.333333  0.000000      2.000000
  0.500000  0.333333  0.000000      2.000000
  0.000000  0.500000  0.000000      1.000000
  0.166667  0.500000  0.000000      2.000000
  0.333333  0.500000  0.000000      2.000000
  0.500000  0.500000  0.000000      1.000000
  0.000000  0.000000  0.500000      1.000000
  0.166667  0.000000  0.500000      2.000000
  0.333333  0.000000  0.500000      2.000000
  0.500000  0.000000  0.500000      1.000000
  0.000000  0.166667  0.500000      2.000000
  0.166667  0.166667  0.500000      2.000000
  0.166667 -0.166667  0.500000      2.000000
  0.333333  0.166667  0.500000      2.000000
  0.333333 -0.166667  0.500000      2.000000
  0.500000  0.166667  0.500000      2.000000
  0.000000  0.333333  0.500000      2.000000
  0.166667  0.333333  0.500000      2.000000
  0.166667 -0.333333  0.500000      2.000000
  0.333333  0.333333  0.500000      2.000000
  0.333333 -0.333333  0.500000      2.000000
  0.500000  0.333333  0.500000      2.000000
  0.000000  0.500000  0.500000      1.000000
  0.166667  0.500000  0.500000      2.000000
  0.333333  0.500000  0.500000      2.000000
  0.500000  0.500000  0.500000      1.000000

 Following cartesian coordinates:
            Coordinates               Weight
  0.000000  0.000000  0.000000      1.000000
  0.042735  0.000000  0.000000      2.000000
  0.085470  0.000000  0.000000      2.000000
  0.128205  0.000000  0.000000      1.000000
  0.000000  0.042194  0.000000      2.000000
  0.042735  0.042194  0.000000      2.000000
  0.042735 -0.042194  0.000000      2.000000
  0.085470  0.042194  0.000000      2.000000
  0.085470 -0.042194  0.000000      2.000000
  0.128205  0.042194  0.000000      2.000000
  0.000000  0.084388  0.000000      2.000000
  0.042735  0.084388  0.000000      2.000000
  0.042735 -0.084388  0.000000      2.000000
  0.085470  0.084388  0.000000      2.000000
  0.085470 -0.084388  0.000000      2.000000
  0.128205  0.084388  0.000000      2.000000
  0.000000  0.126582  0.000000      1.000000
  0.042735  0.126582  0.000000      2.000000
  0.085470  0.126582  0.000000      2.000000
  0.128205  0.126582  0.000000      1.000000
  0.000000  0.000000  0.044874      1.000000
  0.042735  0.000000  0.044874      2.000000
  0.085470  0.000000  0.044874      2.000000
  0.128205  0.000000  0.044874      1.000000
  0.000000  0.042194  0.044874      2.000000
  0.042735  0.042194  0.044874      2.000000
  0.042735 -0.042194  0.044874      2.000000
  0.085470  0.042194  0.044874      2.000000
  0.085470 -0.042194  0.044874      2.000000
  0.128205  0.042194  0.044874      2.000000
  0.000000  0.084388  0.044874      2.000000
  0.042735  0.084388  0.044874      2.000000
  0.042735 -0.084388  0.044874      2.000000
  0.085470  0.084388  0.044874      2.000000
  0.085470 -0.084388  0.044874      2.000000
  0.128205  0.084388  0.044874      2.000000
  0.000000  0.126582  0.044874      1.000000
  0.042735  0.126582  0.044874      2.000000
  0.085470  0.126582  0.044874      2.000000
  0.128205  0.126582  0.044874      1.000000

 SYSTEM =  ./
 POSCAR =  Ge Se

 Startparameter for this run:
   NWRITE =      2    write-flag & timer
   PREC   = normal    normal or accurate (medium, high low for compatibility)
   ISTART =      0    job   : 0-new  1-cont  2-samecut
   ICHARG =      2    charge: 1-file 2-atom 10-const
   ISPIN  =      1    spin polarized calculation?
   LNONCOLLINEAR =      F non collinear calculations
   LSORBIT =      F    spin-orbit coupling
   INIWAV =      1    electr: 0-lowe 1-rand  2-diag
   LASPH  =      T    aspherical Exc in radial PAW
 Electronic Relaxation 1
   ENCUT  =  360.0 eV  26.46 Ry    5.14 a.u.   6.03  6.11 17.24*2*pi/ulx,y,z
   ENINI  =  360.0     initial cutoff
   ENAUG  =  446.8 eV  augmentation charge cutoff
   NELM   =    100;   NELMIN=  2; NELMDL= -5     # of ELM steps
   EDIFF  = 0.1E-05   stopping-criterion for ELM
   LREAL  =      F    real-space projection
   NLSPLINE    = F    spline interpolate recip. space projectors
   LCOMPAT=      F    compatible to vasp.4.4
   GGA_COMPAT  = T    GGA compatible to vasp.4.4-vasp.4.6
   LMAXPAW     = -100 max onsite density
   LMAXMIX     =    4 max onsite mixed and CHGCAR
   VOSKOWN=      0    Vosko Wilk Nusair interpolation
   ROPT   =    0.00000   0.00000
 Ionic relaxation
   EDIFFG = 0.1E-04   stopping-criterion for IOM
   NSW    =      0    number of steps for IOM
   NBLOCK =      1;   KBLOCK =      1    inner block; outer block
   IBRION =     -1    ionic relax: 0-MD 1-quasi-New 2-CG
   NFREE  =      0    steps in history (QN), initial steepest desc. (CG)
   ISIF   =      2    stress and relaxation
   IWAVPR =     10    prediction:  0-non 1-charg 2-wave 3-comb
   ISYM   =      0    0-nonsym 1-usesym 2-fastsym
   LCORR  =      T    Harris-Foulkes like correction to forces

   POTIM  = 0.5000    time-step for ionic-motion
   TEIN   =    0.0    initial temperature
   TEBEG  =    0.0;   TEEND  =   0.0 temperature during run
   SMASS  =  -3.00    Nose mass-parameter (am)
   estimated Nose-frequenzy (Omega)   =  0.10E-29 period in steps = 0.13E+47 mass=  -0.348E-27a.u.
   SCALEE = 1.0000    scale energy and forces
   NPACO  =    256;   APACO  = 10.0  distance and # of slots for P.C.
   PSTRESS=    0.0 pullay stress

  Mass of Ions in am
   POMASS =  72.61 78.96
  Ionic Valenz
   ZVAL   =   4.00  6.00
  Atomic Wigner-Seitz radii
  virtual crystal weights
   VCA    =   1.00  1.00
   NELECT =      40.0000    total number of electrons
   NUPDOWN=      -1.0000    fix difference up-down

 DOS related values:
   EMIN   =  10.00;   EMAX   =-10.00  energy-range for DOS
   EFERMI =   0.00;   METHOD = LEGACY
   ISMEAR =     0;   SIGMA  =   0.05  broadening in eV -4-tet -1-fermi 0-gaus

 Electronic relaxation 2 (details)
   IALGO  =     38    algorithm
   LDIAG  =      T    sub-space diagonalisation (order eigenvalues)
   LSUBROT=      F    optimize rotation matrix (better conditioning)
   TURBO    =      0    0=normal 1=particle mesh
   IRESTART =      0    0=no restart 2=restart with 2 vectors
   NREBOOT  =      0    no. of reboots
   NMIN     =      0    reboot dimension
   EREF     =   0.00    reference energy to select bands
   IMIX   =      4    mixing-type and parameters
     AMIX     =   0.40;   BMIX     =  1.00
     AMIX_MAG =   1.60;   BMIX_MAG =  1.00
     AMIN     =   0.10
     WC   =   100.;   INIMIX=   1;  MIXPRE=   1;  MAXMIX= -45

 Intra band minimization:
   WEIMIN = 0.0000     energy-eigenvalue tresh-hold
[...]
   0.04273504 -0.04219409  0.04487436       0.028
   0.08547009  0.04219409  0.04487436       0.028
   0.08547009 -0.04219409  0.04487436       0.028
   0.12820513  0.04219409  0.04487436       0.028
   0.00000000  0.08438819  0.04487436       0.028
   0.04273504  0.08438819  0.04487436       0.028
   0.04273504 -0.08438819  0.04487436       0.028
   0.08547009  0.08438819  0.04487436       0.028
   0.08547009 -0.08438819  0.04487436       0.028
   0.12820513  0.08438819  0.04487436       0.028
   0.00000000  0.12658228  0.04487436       0.014
   0.04273504  0.12658228  0.04487436       0.028
   0.08547009  0.12658228  0.04487436       0.028
   0.12820513  0.12658228  0.04487436       0.014

 k-points in reciprocal lattice and weights: KPOINTS created by Atomic Simulation Env
   0.00000000  0.00000000  0.00000000       0.014
   0.16666667  0.00000000  0.00000000       0.028
   0.33333333  0.00000000  0.00000000       0.028
   0.50000000  0.00000000  0.00000000       0.014
   0.00000000  0.16666667  0.00000000       0.028
   0.16666667  0.16666667  0.00000000       0.028
   0.16666667 -0.16666667  0.00000000       0.028
   0.33333333  0.16666667  0.00000000       0.028
   0.33333333 -0.16666667  0.00000000       0.028
   0.50000000  0.16666667  0.00000000       0.028
   0.00000000  0.33333333  0.00000000       0.028
   0.16666667  0.33333333  0.00000000       0.028
   0.16666667 -0.33333333  0.00000000       0.028
   0.33333333  0.33333333  0.00000000       0.028
   0.33333333 -0.33333333  0.00000000       0.028
   0.50000000  0.33333333  0.00000000       0.028
   0.00000000  0.50000000  0.00000000       0.014
   0.16666667  0.50000000  0.00000000       0.028
   0.33333333  0.50000000  0.00000000       0.028
   0.50000000  0.50000000  0.00000000       0.014
   0.00000000  0.00000000  0.50000000       0.014
   0.16666667  0.00000000  0.50000000       0.028
   0.33333333  0.00000000  0.50000000       0.028
   0.50000000  0.00000000  0.50000000       0.014
   0.00000000  0.16666667  0.50000000       0.028
   0.16666667  0.16666667  0.50000000       0.028
   0.16666667 -0.16666667  0.50000000       0.028
   0.33333333  0.16666667  0.50000000       0.028
   0.33333333 -0.16666667  0.50000000       0.028
   0.50000000  0.16666667  0.50000000       0.028
   0.00000000  0.33333333  0.50000000       0.028
   0.16666667  0.33333333  0.50000000       0.028
   0.16666667 -0.33333333  0.50000000       0.028
   0.33333333  0.33333333  0.50000000       0.028
   0.33333333 -0.33333333  0.50000000       0.028
   0.50000000  0.33333333  0.50000000       0.028
   0.00000000  0.50000000  0.50000000       0.014
   0.16666667  0.50000000  0.50000000       0.028
   0.33333333  0.50000000  0.50000000       0.028
   0.50000000  0.50000000  0.50000000       0.014

 position of ions in fractional coordinates (direct lattice)
   0.25000000  0.25465048  0.12587395
   0.75000000  0.75465048  0.37412605
   0.75000000  0.74534952  0.87412605
   0.25000000  0.24534952  0.62587395
   0.25000000  0.24996596  0.37453323
   0.75000000  0.74996596  0.12546677
   0.75000000  0.75003404  0.62546677
   0.25000000  0.25003404  0.87453323

 position of ions in cartesian coordinates  (Angst):
   0.97500000  1.00586940  1.40251532
   2.92500000  2.98086940  4.16859518
   2.92500000  2.94413060  9.73970568
   0.97500000  0.96913060  6.97362582
   0.97500000  0.98736553  4.17313200
   2.92500000  2.96236553  1.39797850
   2.92500000  2.96263447  6.96908900
   0.97500000  0.98763447  9.74424250

 k-point   1 :   0.0000 0.0000 0.0000  plane waves:    2643
 k-point   2 :   0.1667 0.0000 0.0000  plane waves:    2664
 k-point   3 :   0.3333 0.0000 0.0000  plane waves:    2642
 k-point   4 :   0.5000 0.0000 0.0000  plane waves:    2644
 k-point   5 :   0.0000 0.1667 0.0000  plane waves:    2662
 k-point   6 :   0.1667 0.1667 0.0000  plane waves:    2652
 k-point   7 :   0.1667-0.1667 0.0000  plane waves:    2652
 k-point   8 :   0.3333 0.1667 0.0000  plane waves:    2671
 k-point   9 :   0.3333-0.1667 0.0000  plane waves:    2671
 k-point  10 :   0.5000 0.1667 0.0000  plane waves:    2668
 k-point  11 :   0.0000 0.3333 0.0000  plane waves:    2638
 k-point  12 :   0.1667 0.3333 0.0000  plane waves:    2660
 k-point  13 :   0.1667-0.3333 0.0000  plane waves:    2660
 k-point  14 :   0.3333 0.3333 0.0000  plane waves:    2676
 k-point  15 :   0.3333-0.3333 0.0000  plane waves:    2676
 k-point  16 :   0.5000 0.3333 0.0000  plane waves:    2680
 k-point  17 :   0.0000 0.5000 0.0000  plane waves:    2636
 k-point  18 :   0.1667 0.5000 0.0000  plane waves:    2668
 k-point  19 :   0.3333 0.5000 0.0000  plane waves:    2676
 k-point  20 :   0.5000 0.5000 0.0000  plane waves:    2696
 k-point  21 :   0.0000 0.0000 0.5000  plane waves:    2670
 k-point  22 :   0.1667 0.0000 0.5000  plane waves:    2650
 k-point  23 :   0.3333 0.0000 0.5000  plane waves:    2664
 k-point  24 :   0.5000 0.0000 0.5000  plane waves:    2648
 k-point  25 :   0.0000 0.1667 0.5000  plane waves:    2636
 k-point  26 :   0.1667 0.1667 0.5000  plane waves:    2650
 k-point  27 :   0.1667-0.1667 0.5000  plane waves:    2650
 k-point  28 :   0.3333 0.1667 0.5000  plane waves:    2654
 k-point  29 :   0.3333-0.1667 0.5000  plane waves:    2654
 k-point  30 :   0.5000 0.1667 0.5000  plane waves:    2676
 k-point  31 :   0.0000 0.3333 0.5000  plane waves:    2646
 k-point  32 :   0.1667 0.3333 0.5000  plane waves:    2658
 k-point  33 :   0.1667-0.3333 0.5000  plane waves:    2658
 k-point  34 :   0.3333 0.3333 0.5000  plane waves:    2676
 k-point  35 :   0.3333-0.3333 0.5000  plane waves:    2676
 k-point  36 :   0.5000 0.3333 0.5000  plane waves:    2676
 k-point  37 :   0.0000 0.5000 0.5000  plane waves:    2648
 k-point  38 :   0.1667 0.5000 0.5000  plane waves:    2660
 k-point  39 :   0.3333 0.5000 0.5000  plane waves:    2688
 k-point  40 :   0.5000 0.5000 0.5000  plane waves:    2680

 maximum and minimum number of plane-waves per node :       685      648

 maximum number of plane-waves:      2696
 maximum index in each direction:
   IXMAX=    6   IYMAX=    6   IZMAX=   17
   IXMIN=   -6   IYMIN=   -6   IZMIN=  -17

 parallel 3D FFT for wavefunctions:
    minimum data exchange during FFTs selected (reduces bandwidth)
 parallel 3D FFT for charge:
    minimum data exchange during FFTs selected (reduces bandwidth)

 Broyden mixing: mesh for mixing (old mesh)
   NGX = 13   NGY = 13   NGZ = 35
  (NGX  = 36   NGY  = 36   NGZ  =108)
  gives a total of   5915 points

 initial charge density was supplied:
 charge density of overlapping atoms calculated
 number of electron      40.0000000 magnetization
 keeping initial charge density in first step

 Maximum index for augmentation-charges           110 (set IRDMAX)

 First call to EWALD:  gamma=   0.319
 Maximum number of real-space cells 4x 4x 2
 Maximum number of reciprocal cells 2x 2x 5

--------------------------------------- Ionic step        1  -------------------------------------------

--------------------------------------- Iteration      1(   1)  ---------------------------------------

 eigenvalue-minimisations  :  2560
 total energy-change (2. order) : 0.1263957E+03  (-0.1316597E+04)
 number of electron      40.0000000 magnetization
 augmentation part       40.0000000 magnetization

 Free energy of the ion-electron system (eV)
  alpha Z        PSCENC =        98.71744101
  Ewald energy   TEWEN  =     -1506.47948229
  -Hartree energ DENC   =       -91.74433398
  -exchange      EXHF   =         0.00000000
  -V(xc)+E(xc)   XCENC  =       -31.95460652
  PAW double counting   =      1193.78262552    -1080.73714043
  entropy T*S    EENTRO =        -0.00343561
  eigenvalues    EBANDS =        96.33003881
  atomic energy  EATOM  =      1448.48460880
  Solvation  Ediel_sol  =         0.00000000
  free energy    TOTEN  =       126.39571530 eV

  energy without entropy =      126.39915091  energy(sigma->0) =      126.39743310

[...]

 eigenvalue-minimisations  :  3760
 total energy-change (2. order) :-0.1526949E+03  (-0.1486350E+03)
 number of electron      40.0000000 magnetization
 augmentation part       40.0000000 magnetization

[...]

 Broyden mixing:
  rms(total) = 0.67318E+00    rms(broyden)= 0.67317E+00
  rms(prec ) = 0.73150E+00
  weight for this iteration     100.00

[...]

 eigenvalues of (default mixing * dielectric matrix)
  average eigenvalue GAMMA=   2.2932
  2.2932

[...]

 eigenvalue-minimisations  :  3344
 total energy-change (2. order) :-0.1228778E-05  (-0.8358180E-06)
 number of electron      40.0000075 magnetization
 augmentation part       -7.4003071 magnetization

 Broyden mixing:
  rms(total) = 0.29284E-03    rms(broyden)= 0.29284E-03
  rms(prec ) = 0.30729E-03
  weight for this iteration     100.00

 eigenvalues of (default mixing * dielectric matrix)
  average eigenvalue GAMMA=   1.7887
  2.8319  2.8319  2.4778  1.2130  1.2130  0.9766  0.9766

[...]

--------------------------------------- Iteration      1(  13)  ---------------------------------------

 eigenvalue-minimisations  :  1792
 total energy-change (2. order) : 0.2944209E-06  (-0.7938645E-07)
 number of electron      40.0000075 magnetization
 augmentation part       -7.4003071 magnetization

 Free energy of the ion-electron system (eV)
  alpha Z        PSCENC =        98.71744101
  Ewald energy   TEWEN  =     -1506.47948229
  -Hartree energ DENC   =       -98.75904130
  -exchange      EXHF   =         0.00000000
  -V(xc)+E(xc)   XCENC  =       -30.97331139
  PAW double counting   =      1956.88313357    -1844.44775990
  entropy T*S    EENTRO =        -0.00005794
  eigenvalues    EBANDS =       -57.10352199
  atomic energy  EATOM  =      1448.48460880
  Solvation  Ediel_sol  =         0.00000000
  free energy    TOTEN  =       -33.67799144 eV

  energy without entropy =      -33.67793350  energy(sigma->0) =      -33.67796247

 average (electrostatic) potential at core
  the test charge radii are     1.1631  1.0808
  (the norm of the test charge is              1.0000)
       1 -32.4564       2 -32.4564       3 -32.4564       4 -32.4564       5 -53.9669
       6 -53.9669       7 -53.9669       8 -53.9669

 E-fermi :   5.0839     XC(G=0):  -9.8859     alpha+bet : -9.8345

 Fermi energy:         5.0839326389

 k-point     1 :       0.0000    0.0000    0.0000
  band No.  band energies     occupation
      1     -10.2460      2.00000
      2      -9.4765      2.00000
      3      -9.4235      2.00000
      4      -8.3613      2.00000
      5      -2.3933      2.00000
      6      -2.3796      2.00000
      7      -2.3264      2.00000
      8      -1.7096      2.00000
      9      -0.3900      2.00000
     10       0.5198      2.00000
     11       0.6794      2.00000
     12       1.3113      2.00000
     13       1.3614      2.00000
     14       1.4648      2.00000
     15       1.5140      2.00000
     16       2.4326      2.00000
     17       2.5519      2.00000
     18       2.5571      2.00000
     19       2.5821      2.00000
     20       2.6129      2.00000
     21       7.2725      0.00000
     22       7.3862      0.00000
     23       7.6073      0.00000
     24       8.6550      0.00000
     25       8.6956      0.00000
     26       9.0636      0.00000
     27       9.1463      0.00000
     28       9.2138      0.00000
     29       9.6372      0.00000
     30       9.6767      0.00000
     31       9.6828      0.00000
     32       9.7327      0.00000

[...]

 k-point    40 :       0.5000    0.5000    0.5000
  band No.  band energies     occupation
      1      -8.2835      2.00000
      2      -8.2835      2.00000
      3      -8.2835      2.00000
      4      -8.2835      2.00000
      5      -3.0598      2.00000
      6      -3.0598      2.00000
      7      -3.0598      2.00000
      8      -3.0598      2.00000
      9      -1.4733      2.00000
     10      -1.4733      2.00000
     11      -1.4733      2.00000
     12      -1.4733      2.00000
     13       0.0822      2.00000
     14       0.0822      2.00000
     15       0.0822      2.00000
     16       0.0822      2.00000
     17       1.9885      2.00000
     18       1.9885      2.00000
     19       1.9885      2.00000
     20       1.9885      2.00000
     21       8.4958      0.00000
     22       8.4958      0.00000
     23       8.4958      0.00000
     24       8.4958      0.00000
     25       8.6095      0.00000
     26       8.6095      0.00000
     27       8.6095      0.00000
     28       8.6095      0.00000
     29      11.1046      0.00000
     30      11.1046      0.00000
     31      11.1046      0.00000
     32      11.1046      0.00000

 soft charge-density along one line, spin component            1
         0         1         2         3         4         5         6         7         8         9
 total charge-density along one line

------------------------ aborting loop because EDIFF is reached ----------------------------------------

  FORCE on cell =-STRESS in cart. coord.  units (eV):
  Direction    XX          YY          ZZ          XY          YZ          ZX
  Alpha Z    98.71744    98.71744    98.71744
  Ewald    -502.11316  -498.60661  -505.76197    -0.00000     0.00000     0.00000
  Hartree    33.23603    33.47360    32.04773     0.00000    -0.00000     0.00000
  E(xc)    -141.80382  -141.75538  -141.77190    -0.00000     0.00000    -0.00000
  Local    -111.68474  -114.80414  -106.69584    -0.00000     0.00000     0.00000
  n-local   240.62591   240.62870   240.39712     0.00000    -0.00000    -0.00000
  augment   -11.71456   -11.65586   -11.68759     0.00000    -0.00000    -0.00000
  Kinetic   398.96750   397.49013   398.62740    -0.00000    -0.00000    -0.00000
  Fock        0.00000     0.00000     0.00000     0.00000     0.00000     0.00000
  Total       4.23060     3.48787     3.87239    -0.00000    -0.00000    -0.00000
  in kB      39.48929    32.55647    36.14566    -0.00001    -0.00000    -0.00000

 VOLUME and BASIS-vectors are now :
  energy-cutoff  :      360.00
  volume of cell :      171.65
      direct lattice vectors                 reciprocal lattice vectors
     3.900000000  0.000000000  0.000000000     0.256410256  0.000000000  0.000000000
     0.000000000  3.950000000  0.000000000     0.000000000  0.253164557  0.000000000
     0.000000000  0.000000000 11.142221000     0.000000000  0.000000000  0.089748713

  length of vectors
     3.900000000  3.950000000 11.142221000     0.256410256  0.253164557  0.089748713

 FORCES acting on ions
    electron-ion (+dipol)            ewald-force                    non-local-force                 convergence-correction
   0.914E-06 0.603E+00 0.129E+01   0.551E-14 -.744E+00 -.140E+01   -.533E-06 0.131E+00 0.108E+00   -.447E-06 -.169E-04 -.165E-04
   -.347E-06 0.603E+00 -.129E+01   -.344E-14 -.744E+00 0.140E+01   0.801E-07 0.131E+00 -.108E+00   0.262E-06 -.184E-04 0.203E-04
   0.643E-06 -.603E+00 -.129E+01   -.136E-14 0.744E+00 0.140E+01   -.199E-06 -.131E+00 -.108E+00   -.412E-06 0.180E-04 0.153E-04
   -.809E-07 -.603E+00 0.129E+01   0.522E-14 0.744E+00 -.140E+01   0.315E-07 -.131E+00 0.108E+00   0.892E-07 0.185E-04 -.192E-04
   0.129E-05 -.813E+00 -.179E+01   0.802E-14 0.884E+00 0.189E+01   -.421E-06 -.671E-01 -.924E-01   -.660E-06 -.932E-05 0.285E-04
   -.119E-05 -.813E+00 0.179E+01   -.824E-14 0.884E+00 -.189E+01   0.438E-06 -.671E-01 0.924E-01   0.734E-06 -.126E-04 -.226E-04
   -.138E-06 0.813E+00 0.179E+01   -.879E-14 -.884E+00 -.189E+01   0.795E-07 0.671E-01 0.924E-01   -.276E-07 0.919E-05 -.252E-04
   -.293E-05 0.813E+00 -.179E+01   0.238E-14 -.884E+00 0.189E+01   0.140E-05 0.671E-01 -.924E-01   0.164E-05 0.982E-05 0.191E-04
   -.184E-05 0.292E-05 0.990E-06   -.712E-15 -.289E-14 0.666E-14   0.878E-06 -.122E-05 -.710E-06   0.118E-05 -.180E-05 -.224E-06

 POSITION                                       TOTAL-FORCE (eV/Angst)
      0.97500      1.00587      1.40252        -0.000000     -0.009379     -0.002661
      2.92500      2.98087      4.16860        -0.000000     -0.009379      0.002659
      2.92500      2.94413      9.73971         0.000000      0.009379      0.002661
      0.97500      0.96913      6.97363         0.000000      0.009379     -0.002659
      0.97500      0.98737      4.17313         0.000000      0.003659      0.002877
      2.92500      2.96237      1.39798        -0.000000      0.003660     -0.002877
      2.92500      2.96263      6.96909        -0.000000     -0.003659     -0.002877
      0.97500      0.98763      9.74424         0.000000     -0.003660      0.002878
    total drift:                                0.000000     -0.000000      0.000000

  FREE ENERGIE OF THE ION-ELECTRON SYSTEM (eV)
  free  energy   TOTEN  =       -33.67799144 eV

  energy  without entropy=      -33.67793350  energy(sigma->0) =      -33.67796247