 vasp.6.4.2 20Jul23 (build Oct 12 2023 10:31:02) complex
 executed on              LinuxNV date 2024.11.01  23:25:10

 INCAR:
   ENCUT = 520.000000
   SIGMA = 0.050000
   EDIFF = 1.00e-06
   ALGO = N
   GGA = PE
   PREC = Accurate
   SYSTEM = 01_AOPT
   ICHARG = 0
   ISMEAR = 0
   ISPIN = 2
   ISTART = 1
   ISYM = -1
   KPAR = 2
   LORBIT = 11
   NBANDS = 220
   NELM = 100
   NELMIN = 5
   NPAR = 8
   LASPH = .TRUE.
   LCHARG = .FALSE.
   LWAVE = .FALSE.
   LREAL = .FALSE.

 POTCAR:    PAW_PBE Ge 05Jan2001
 POTCAR:    PAW_PBE Se 06Sep2000
|           W    W    AA    RRRRR   N    N  II  N    N   GGGG   !!!           |
|           W    W   A  A   R    R  NN   N  II  NN   N  G    G  !!!           |
|           W    W  A    A  R    R  N N  N  II  N N  N  G       !!!           |
|           W WW W  AAAAAA  RRRRR   N  N N  II  N  N N  G  GGG   !            |
|           WW  WW  A    A  R   R   N   NN  II  N   NN  G    G                |
|           W    W  A    A  R    R  N    N  II  N    N   GGGG   !!!           |
|     You use a magnetic or noncollinear calculation, but did not specify     |
|     the initial magnetic moment with the MAGMOM tag. Note that a            |
|     default of 1 will be used for all atoms. This ferromagnetic setup       |
|     may break the symmetry of the crystal, in particular it may rule        |
|     out finding an antiferromagnetic solution. Thence, we recommend         |
|     setting the initial magnetic moment manually or verifying carefully     |
|     that this magnetic setup is desired.                                    |

 POTCAR:    PAW_PBE Ge 05Jan2001
   VRHFIN =Ge: s2p2

   TITEL  = PAW_PBE Ge 05Jan2001
   POMASS =   72.610; ZVAL   =    4.000    mass and valenz
   ENMAX  =  173.807; ENMIN  =  130.355 eV

 POTCAR:    PAW_PBE Se 06Sep2000
   VRHFIN =Se: s2p4

   TITEL  = PAW_PBE Se 06Sep2000
   POMASS =   78.960; ZVAL   =    6.000    mass and valenz
   ENMAX  =  211.555; ENMIN  =  158.666 eV

  PAW_PBE Ge 05Jan2001                  :
  PAW_PBE Se 06Sep2000                  :

 POSCAR: Ge Se
  positions in cartesian coordinates
 exchange correlation table for  LEXCH =        8
   RHO(1)=    0.500       N(1)  =     2000
   RHO(2)=  100.500       N(2)  =     4000

 ion  position               nearest neighbor table
   1  0.080  0.040  0.115-  55 2.69  54 2.74
   2  0.250  0.907  0.380-  48 2.11  67 2.47
   3  0.560  0.221  0.381-  49 2.27  68 2.56  56 2.64
   4  0.604  0.540  0.343-  69 2.14  72 2.25
   5  0.574  0.886  0.364-  70 2.50  44 2.68  50 2.86
   6  0.912  0.219  0.393-  46 2.66  45 2.75  56 2.75  55 2.78
   7  0.890  0.536  0.371-  71 2.75
   8  0.895  0.901  0.382-  44 2.39  45 2.65
   9  0.070  0.171  0.638-  57 2.58
  10  0.086  0.492  0.626-  58 2.67  39 2.73  38 2.75
  11  0.068  0.813  0.609-  52 2.65  59 2.75
  12  0.398  0.160  0.634-  60 2.42  40 2.57  51 2.68
  13  0.389  0.517  0.610-  39 2.55  61 2.72  38 2.75
  14  0.414  0.824  0.652-  62 2.47  42 2.50
  15  0.723  0.146  0.625-  40 2.58  37 2.76
  16  0.755  0.486  0.637-  64 2.43  43 2.44
  17  0.242  0.566  0.370-  47 2.42  66 2.42
  18  0.234  0.219  0.361-  54 2.41  46 2.75
  19  0.746  0.844  0.641-  65 2.75
  20  0.923  0.641  0.913-  58 2.20  71 2.56  64 2.82
  21  0.904  0.960  0.834-  37 2.35  59 2.53  65 2.77
  22  0.074  0.383  0.154-  46 2.49  66 2.65
  23  0.047  0.707  0.126-  47 2.36  53 2.37  71 2.70
  24  0.374  0.066  0.161-  54 2.26  48 2.55  68 2.83
  25  0.394  0.387  0.124-  49 2.61  66 2.67
  26  0.718  0.069  0.135-  68 2.02  44 2.50  55 2.68
  27  0.776  0.354  0.127-  56 2.61  55 2.85
  28  0.408  0.703  0.144-  50 2.20  67 2.41  70 2.53
  29  0.222  0.290  0.840-  38 2.11  57 2.35  60 2.74
  30  0.240  0.666  0.893-  39 2.78
  31  0.237  0.964  0.865-  62 2.46  51 2.64  59 2.82
  32  0.546  0.287  0.891-  60 2.30  63 2.50
  33  0.565  0.651  0.866-  64 2.60  42 2.63  61 2.76
  34  0.591  0.002  0.857-  40 2.54  65 2.70  62 2.83
  35  0.897  0.302  0.895-  63 2.42
  36  0.716  0.712  0.137-  70 2.21  53 2.53  72 2.63  69 2.66
  37  0.902  0.015  0.629-  21 2.35  15 2.76
  38  0.252  0.350  0.664-  29 2.11  13 2.75  10 2.75
  39  0.236  0.651  0.640-  13 2.55  10 2.73  30 2.78
  40  0.555  0.026  0.631-  34 2.54  12 2.57  15 2.58
  41  0.567  0.346  0.614-
  42  0.565  0.693  0.631-  14 2.50  33 2.63
  43  0.899  0.353  0.635-  16 2.44
  44  0.744  0.018  0.354-   8 2.39  26 2.50   5 2.68
  45  0.049  0.047  0.384-   8 2.65   6 2.75
  46  0.068  0.364  0.379-  22 2.49   6 2.66  18 2.75
  47  0.086  0.676  0.333-  23 2.36  17 2.42
  48  0.383  0.011  0.384-   2 2.11  24 2.55
  49  0.429  0.345  0.353-   3 2.27  25 2.61
  50  0.423  0.715  0.343-  28 2.20   5 2.86
  51  0.240  0.013  0.631-  31 2.64  12 2.68
  52  0.905  0.676  0.622-  11 2.65
  53  0.891  0.816  0.136-  23 2.37  36 2.53
  54  0.241  0.188  0.144-  24 2.26  18 2.41   1 2.74
  55  0.909  0.169  0.147-  26 2.68   1 2.69   6 2.78  27 2.85
  56  0.732  0.343  0.359-  27 2.61   3 2.64   6 2.75
  57  0.084  0.164  0.872-  29 2.35   9 2.58
  58  0.050  0.527  0.863-  20 2.20  10 2.67
  59  0.056  0.827  0.858-  21 2.53  11 2.75  31 2.82
  60  0.406  0.170  0.854-  32 2.30  12 2.42  29 2.74
  61  0.399  0.504  0.857-  13 2.72  33 2.76
  62  0.409  0.867  0.872-  31 2.46  14 2.47  34 2.83
  63  0.729  0.206  0.882-  35 2.42  32 2.50
  64  0.734  0.529  0.851-  16 2.43  33 2.60  20 2.82
  65  0.726  0.835  0.890-  34 2.70  19 2.75  21 2.77
  66  0.232  0.525  0.155-  17 2.42  22 2.65  25 2.67
  67  0.270  0.837  0.171-  28 2.41   2 2.47
  68  0.583  0.156  0.161-  26 2.02   3 2.56  24 2.83
  69  0.598  0.535  0.148-   4 2.14  36 2.66
  70  0.575  0.819  0.149-  36 2.21   5 2.50  28 2.53
  71  0.895  0.553  0.121-  20 2.56  23 2.70   7 2.75
  72  0.712  0.682  0.374-   4 2.25  36 2.63

IMPORTANT INFORMATION: All symmetrisations will be switched off!
NOSYMM: (Re-)initialisation of all symmetry stuff for point group C_1.

                                     Primitive cell

  volume of cell :    1705.0226

  direct lattice vectors                    reciprocal lattice vectors
    12.460103966 -0.000008163  0.000003069     0.080256152  0.000000053 -0.000000025
    -0.000008163 12.460102723  0.000000081     0.000000053  0.080256160 -0.000000001
     0.000003482  0.000000092 10.982136908    -0.000000022 -0.000000001  0.091056960

  length of vectors
    12.460103966 12.460102723 10.982136908     0.080256152  0.080256160  0.091056960

  position of ions in fractional coordinates (direct lattice)
     0.079786339  0.040372980  0.114590104
     0.249891960  0.907300167  0.380271929
     0.560376921  0.220845972  0.380981726
     0.604004522  0.540272960  0.342973188
     0.574491917  0.885811078  0.363637737
     0.912093714  0.219022883  0.393262000
     0.889624595  0.535973124  0.370796902
     0.894878547  0.900984166  0.381754437
     0.070040703  0.170514861  0.637925548
     0.086440379  0.492247850  0.626106341
     0.068145045  0.812777756  0.608923774
     0.398194074  0.159705214  0.634431500
     0.388581492  0.517262655  0.610029971
     0.413724118  0.824303022  0.652051525
     0.723269312  0.146393962  0.625318893
     0.755487982  0.485612350  0.636581228
     0.242190600  0.566430889  0.370118362
     0.234055098  0.219072571  0.360524967
     0.745921291  0.844370637  0.641399042
     0.923092621  0.641295442  0.913119210
     0.903507014  0.959770981  0.834214381
     0.073623232  0.382690360  0.154149681
     0.047196027  0.707078588  0.126161194
     0.374130447  0.066117467  0.160737911
     0.393640903  0.386745618  0.123856337
     0.718298695  0.069171942  0.135246973
     0.775928172  0.354115690  0.127017597
     0.408015102  0.703111572  0.143900884
     0.221657162  0.289586796  0.839669750
     0.239961472  0.666447369  0.892585677
     0.236958282  0.963852307  0.864627930
     0.545546309  0.287319248  0.890656413
     0.565285207  0.651002078  0.866263155
     0.591016454  0.002362291  0.857109154
     0.897206876  0.301783466  0.895242333
     0.716373491  0.711708600  0.136681175
     0.901516533  0.014955581  0.629337966
     0.252357461  0.350265499  0.664124381
     0.236386616  0.651444311  0.639707582
     0.555171527  0.026101211  0.631120932
     0.567261729  0.345671954  0.614274695
     0.564786664  0.693114146  0.631379990
     0.899326038  0.352556228  0.634587193
     0.744452590  0.017565137  0.353642661
     0.049475508  0.046915034  0.384421325
     0.068240274  0.363679107  0.379443760
     0.085557119  0.675957479  0.333269965
     0.383289925  0.011300192  0.383867879
     0.428511246  0.344659126  0.353325646
     0.422820726  0.714859658  0.342641694
     0.240419214  0.013477495  0.631030375
     0.904792263  0.676477864  0.622347771
     0.891101600  0.815540629  0.135745922
     0.240737256  0.188350044  0.144160344
     0.908623868  0.168880788  0.147087241
     0.731865462  0.343274819  0.359429765
     0.084433169  0.163804443  0.872234332
     0.050424758  0.527456776  0.862520828
     0.056471507  0.827373015  0.858307315
     0.406122233  0.170238767  0.854147514
     0.399332319  0.504202761  0.856785717
     0.408711956  0.866974933  0.872046243
     0.728762596  0.205625350  0.882143871
     0.733931422  0.529499892  0.851084906
     0.726073790  0.835051626  0.890409729
     0.232159937  0.524514463  0.155422651
     0.270229693  0.836610493  0.171131430
     0.582932444  0.155977559  0.161102924
     0.598221437  0.534628540  0.147919437
     0.574958084  0.818684881  0.149350050
     0.895085306  0.553250811  0.121195605
     0.712341124  0.681928708  0.373835339

  ion indices of the primitive-cell ions
   primitive index   ion index
                 1           1
                 2           2
                 3           3
                 4           4
                 5           5
                 6           6
                 7           7
                 8           8
                 9           9
                10          10
                11          11
                12          12
                13          13
                14          14
                15          15
                16          16
                17          17
                18          18
                19          19
                20          20
                21          21
                22          22
                23          23
                24          24
                25          25
                26          26
                27          27
                28          28
                29          29
                30          30
                31          31
                32          32
                33          33
                34          34
                35          35
                36          36
                37          37
                38          38
                39          39
                40          40
                41          41
                42          42
                43          43
                44          44
                45          45
                46          46
                47          47
                48          48
                49          49
[...]
   0.166E+01 0.260E+01 0.113E+02   -.234E+01 -.207E+01 -.130E+02   0.675E+00 -.165E+01 0.216E+01   -.464E-04 0.125E-03 -.255E-04
   0.168E+02 -.184E+02 0.168E+02   -.184E+02 0.216E+02 -.163E+02   -.112E+01 -.866E+00 -.107E+01   0.348E-04 -.403E-04 -.486E-04
   0.227E+01 -.193E+02 -.324E+02   -.248E+01 0.222E+02 0.364E+02   0.113E+00 -.259E+01 -.169E+01   0.264E-04 0.193E-03 0.527E-04
   0.408E+01 0.128E+02 0.346E+02   -.452E+01 -.145E+02 -.373E+02   0.131E+00 0.197E+01 0.214E+01   -.799E-04 -.109E-03 -.108E-03
   -.336E+02 -.170E+02 0.185E+02   0.354E+02 0.163E+02 -.219E+02   -.856E+00 0.499E+00 0.227E+01   0.745E-04 0.381E-04 -.770E-04
   -.138E+02 0.130E+02 0.346E+02   0.163E+02 -.161E+02 -.375E+02   -.416E+00 0.281E+00 0.236E+01   0.240E-03 -.104E-03 -.115E-03
   -.612E+01 0.423E+01 0.289E+02   0.713E+01 -.581E+01 -.313E+02   -.635E+00 0.186E+01 0.235E+01   0.218E-03 -.155E-03 -.105E-03
   -.298E+02 0.296E+02 0.391E+02   0.325E+02 -.343E+02 -.427E+02   0.369E+01 -.373E+00 0.169E+01   -.304E-03 0.481E-04 0.573E-06
   0.381E+01 -.880E+00 0.246E+02   -.480E+01 0.866E+00 -.267E+02   0.762E+00 0.549E+00 0.239E+01   -.159E-03 -.501E-05 -.125E-03
   0.127E+02 0.295E+02 0.577E+02   -.132E+02 -.317E+02 -.613E+02   0.546E+00 0.125E+01 -.137E+00   0.325E-04 0.370E-04 -.130E-03
   0.525E+01 -.166E+02 -.469E+02   -.404E+01 0.196E+02 0.534E+02   -.437E+00 -.271E+01 -.248E+00   -.801E-05 -.201E-05 0.754E-04
   -.716E+01 -.494E+01 -.152E+02   0.711E+01 0.593E+01 0.166E+02   0.149E+00 -.183E+01 -.209E+01   -.914E-06 0.906E-04 -.262E-04
   0.163E+02 -.152E+01 -.253E+02   -.174E+02 0.402E+01 0.279E+02   0.368E+00 -.184E+01 -.269E+01   0.302E-04 0.264E-04 0.753E-04
   -.702E+01 -.355E+02 -.176E+02   0.726E+01 0.396E+02 0.198E+02   0.568E+00 -.149E+01 -.233E+01   0.219E-04 0.240E-04 0.151E-03
   0.140E+02 0.319E+01 -.938E+01   -.144E+02 -.127E+01 0.118E+02   0.328E+00 -.210E+01 -.270E+01   0.211E-04 -.215E-04 0.379E-04
   -.893E+01 -.304E+01 -.260E+02   0.822E+01 0.448E+01 0.288E+02   0.605E+00 -.181E+01 -.213E+01   -.102E-03 0.953E-04 0.110E-03
   -.190E+02 -.829E+01 -.462E+01   0.200E+02 0.104E+02 0.609E+01   -.131E+00 -.149E+01 -.197E+01   -.191E-04 0.700E-05 -.195E-04
   -.187E+02 0.469E+01 0.237E+02   0.200E+02 -.708E+01 -.257E+02   0.101E+01 0.115E+00 0.205E+01   -.135E-03 -.377E-04 -.252E-04
   -.650E+01 -.713E+01 0.264E+01   0.655E+01 0.748E+01 -.484E+01   -.710E-01 -.121E+00 0.104E+01   -.125E-03 0.585E-04 0.777E-04
   -.193E+01 -.971E+01 0.394E+02   0.259E+01 0.102E+02 -.436E+02   -.657E+00 0.844E+00 -.177E+01   0.105E-04 -.367E-04 -.476E-04
   0.272E+01 -.249E+02 0.948E+01   -.311E+01 0.259E+02 -.101E+02   -.110E+00 0.509E+00 0.136E+01   0.406E-04 -.252E-04 0.266E-04
   -.125E+02 0.163E+02 0.159E+02   0.126E+02 -.175E+02 -.179E+02   0.533E+00 0.410E+00 0.186E+01   0.237E-04 0.233E-04 0.354E-04
   -.237E+01 -.192E+02 -.168E+02   0.232E+01 0.198E+02 0.162E+02   0.356E+00 -.679E+00 0.158E+01   -.405E-04 -.313E-04 0.764E-04
   -.973E+01 0.192E+02 0.997E+01   0.103E+02 -.200E+02 -.116E+02   -.605E+00 0.578E+00 0.221E+01   -.129E-03 0.894E-04 0.202E-03
   -.692E+01 0.157E+02 -.808E+01   0.767E+01 -.165E+02 0.732E+01   -.245E-02 0.309E-01 0.163E+01   0.280E-04 -.604E-04 0.874E-04
   0.324E-01 -.554E+01 -.207E+02   -.828E+00 0.703E+01 0.222E+02   0.144E+00 -.968E+00 -.963E+00   -.233E-03 -.162E-04 0.289E-04
   -.172E+02 0.152E+02 0.495E+01   0.181E+02 -.154E+02 -.401E+01   -.786E-01 -.190E+00 -.197E+01   0.319E-04 -.338E-04 0.205E-04
   -.101E+02 -.850E+01 -.194E+02   0.104E+02 0.929E+01 0.211E+02   -.209E+00 -.109E+01 -.183E+01   0.651E-04 0.130E-05 0.471E-04
   0.148E+02 -.273E+02 -.440E+02   -.160E+02 0.290E+02 0.468E+02   0.310E+00 -.122E+01 -.725E+00   0.359E-04 0.638E-04 0.121E-03
   -.243E+02 -.250E+02 -.150E+02   0.271E+02 0.274E+02 0.172E+02   0.198E+01 0.161E+01 -.209E+01   0.122E-03 -.219E-04 -.120E-03
   0.290E+02 -.299E+02 -.102E+02   -.305E+02 0.325E+02 0.118E+02   -.935E+00 -.971E+00 -.221E+01   0.175E-04 -.575E-04 -.598E-04
   0.162E+02 0.217E+02 -.678E+02   -.159E+02 -.220E+02 0.714E+02   -.598E+00 -.122E+01 0.110E+01   -.514E-04 0.259E-04 -.101E-03
   0.238E+02 0.157E+02 0.392E+01   -.242E+02 -.164E+02 -.556E+01   -.181E+00 0.108E+01 0.254E+01   0.513E-04 -.595E-05 0.131E-03
   0.284E+01 0.107E+01 0.138E+02   -.323E+01 -.160E+01 -.140E+02   0.487E+00 0.117E+01 0.125E+00   0.756E-04 0.455E-04 0.320E-04
   -.157E+02 -.634E+02 0.234E+01   0.153E+02 0.660E+02 -.349E+01   0.442E+00 -.189E+00 0.208E+01   -.825E-06 0.112E-03 -.884E-04
   0.183E+02 -.228E+02 0.419E+02   -.190E+02 0.245E+02 -.443E+02   -.146E+01 0.225E+00 0.127E+01   0.174E-03 -.759E-04 -.627E-04
   -.201E+02 0.554E+01 0.319E+02   0.200E+02 -.535E+01 -.323E+02   0.342E+00 0.825E+00 0.464E+00   -.467E-04 -.202E-04 -.164E-03
   -.789E+01 -.432E+01 -.167E+02   0.828E+01 0.490E+01 0.180E+02   0.202E+00 -.167E+00 -.174E+01   -.515E-04 -.851E-04 -.954E-04
   0.275E+02 0.151E+02 -.306E+02   -.285E+02 -.160E+02 0.319E+02   -.101E+01 -.117E+00 -.153E+01   -.616E-05 0.373E-05 -.377E-04
   -.310E+02 0.440E+02 -.584E+01   0.329E+02 -.468E+02 0.681E+01   0.124E+01 0.349E-01 -.181E+01   0.433E-04 -.783E-04 -.115E-04
   -.183E+02 -.134E+02 -.162E+02   0.186E+02 0.128E+02 0.171E+02   0.461E+00 0.911E+00 -.183E+01   0.189E-03 0.801E-04 0.140E-04
   0.109E+02 0.859E+01 -.464E+02   -.120E+02 -.104E+02 0.485E+02   -.313E+00 0.229E+00 -.130E+01   0.124E-03 -.396E-04 0.911E-04
   -.552E+01 0.126E+02 -.285E+02   0.560E+01 -.134E+02 0.294E+02   0.873E-01 0.169E+01 -.109E+01   0.116E-03 0.250E-04 0.212E-05
   -.121E+01 0.109E+02 -.330E+02   0.188E+01 -.119E+02 0.352E+02   -.147E+00 0.249E+00 -.189E+01   -.506E-04 0.101E-03 0.491E-04
   -.108E+02 0.894E+01 0.482E+00   0.108E+02 -.103E+02 0.264E+00   0.103E+00 -.352E+00 -.173E+01   -.848E-04 0.205E-04 0.625E-04
   0.138E+02 0.258E+02 -.111E+02   -.134E+02 -.270E+02 0.130E+02   -.202E+00 0.849E+00 -.128E+01   -.137E-03 -.147E-03 0.735E-04
   -.340E+01 -.846E+01 -.161E+01   0.357E+01 0.809E+01 0.244E+01   0.382E-01 0.104E+01 -.248E+01   -.121E-03 0.121E-03 -.108E-03
   -.806E+01 0.142E+02 0.439E+02   0.794E+01 -.134E+02 -.461E+02   0.651E+00 -.164E+01 0.106E+01   0.842E-04 -.831E-04 0.902E-05
   0.447E+02 -.235E+02 0.482E+02   -.464E+02 0.237E+02 -.499E+02   -.377E-01 0.126E+01 0.103E+00   0.890E-04 0.920E-04 -.118E-03
   0.397E+02 -.241E+02 0.339E+02   -.434E+02 0.268E+02 -.348E+02   -.301E+01 0.206E+01 0.126E+01   -.769E-04 -.821E-04 -.688E-04
   0.254E+02 0.501E+02 0.656E+02   -.257E+02 -.509E+02 -.698E+02   -.586E+00 -.439E+00 -.809E+00   -.130E-04 -.170E-03 0.342E-04
   0.138E+02 -.552E+02 0.466E+02   -.151E+02 0.583E+02 -.487E+02   -.673E+00 0.581E+00 0.129E+01   -.362E-04 0.144E-03 -.757E-04
   -.185E+01 0.415E+02 0.630E+00   0.146E+01 -.422E+02 -.444E+00   0.549E+00 -.147E+01 0.131E+01   -.326E-04 -.104E-03 -.392E-04
   -.364E+02 -.238E+02 -.557E+02   0.380E+02 0.255E+02 0.578E+02   0.116E+01 0.298E+00 -.179E+01   -.797E-04 -.103E-03 -.175E-03
   -.421E+01 0.356E+01 0.416E+01   -.142E-13 -.284E-13 -.853E-13   0.421E+01 -.356E+01 -.415E+01   -.156E-03 -.193E-03 -.125E-03

 POSITION                                       TOTAL-FORCE (eV/Angst)
      0.99415      0.50305      1.25844        -0.306037     -0.084833      0.765414
      3.11367     11.30505      4.17620        -4.817828     -3.891289      0.700400
      6.98235      2.75176      4.18400         1.515925     -1.281053      1.024046
      7.52596      6.73185      3.76658        -2.287348     -2.020619      4.308134
      7.15822     11.03729      3.99352        -0.008618     -0.290699      0.554094
     11.36478      2.72904      4.31886        -0.051170     -0.113949     -0.345848
     11.08481      6.67827      4.07215        -0.066182      0.776105     -0.043519
     11.15027     11.22635      4.19248         0.930919     -1.031299     -0.342482
      0.87272      2.12463      7.00579         0.256770     -0.758976      0.016409
      1.07705      6.13346      6.87599        -0.569398      0.145296      0.469461
      0.84909     10.12729      6.68728        -0.217921     -0.547086      0.436831
      4.96154      1.98994      6.96741        -0.001543      0.254342     -1.038813
      4.84176      6.44514      6.69943         1.153804     -0.487439      0.663282
      5.15504     10.27090      7.16092        -0.280762      0.021503     -0.649844
      9.01201      1.82408      6.86734        -0.084302      0.977568      0.231051
      9.41346      6.05077      6.99102        -0.993788      0.317022     -0.651785
      3.01772      7.05779      4.06469         0.770298      0.031388      0.774298
      2.91635      2.72966      3.95934         0.017753      0.194611      1.506998
      9.29425     10.52094      7.04393        -0.005352     -1.114655      0.465222
     11.50183      7.99060     10.02800        -2.669419      2.311630     -0.613241
     11.25779     11.95884      9.16146        -0.105023      0.280103      2.323109
      0.91735      4.76836      1.69289        -0.313180      0.273496     -0.594741
      0.58806      8.81027      1.38552         0.947823     -0.168724     -1.189405
      4.66170      0.82383      1.76525         2.122999     -2.764706     -0.559061
      4.90480      4.81889      1.36021         0.384386      0.284092     -0.092164
      8.95008      0.86188      1.48530         6.449822     -5.050311     -1.947431
      9.66814      4.41231      1.39493        -0.225345      0.534790      0.280001
      5.08391      8.76084      1.58034         0.034310     -0.982336     -3.673597
      2.76187      3.60828      9.22137         0.769988      0.360602      6.176481
      2.98994      8.30400      9.80250         0.096965     -0.838630     -0.668002
      2.95252     12.00970      9.49546        -0.766666      0.659393     -0.147625
      6.79756      3.58002      9.78131         0.807161      2.665621     -0.180435
      7.04351      8.11155      9.51342        -0.071245     -0.180769     -0.264880
      7.36413      0.02943      9.41289        -0.110629     -0.371469      0.632457
     11.17929      3.76025      9.83168         0.802138      0.611020     -0.512752
      8.92608      8.86796      1.50105         2.385586     -2.267559      0.040739
     11.23299      0.18634      6.91148        -0.020847      0.234311     -1.164462
      3.14440      4.36434      7.29351         0.000308      1.373996     -6.028505
      2.94540      8.11706      7.02536        -0.495653      1.498147      0.698547
      6.91750      0.32522      6.93106         0.619583     -0.798401     -0.134632
      7.06814      4.30710      6.74605         0.301284     -0.120513      0.999160
      7.03730      8.63627      6.93390         0.003588     -0.248617      0.559012
     11.20570      4.39288      6.96913         0.752962     -0.808330      0.875236
      9.27596      0.21886      3.88375        -0.651571      0.521340      0.529279
      0.61647      0.58457      4.22177         0.879429     -0.420582     -1.038731
      0.85028      4.53148      4.16710         0.092250     -0.297526     -0.073087
      1.06605      8.42250      3.66002        -0.969116      0.436793      2.089857
      4.77583      0.14080      4.21569         4.769971      4.069494      0.042213
      5.33929      4.29448      3.88027        -2.416318      1.644740     -0.560444
      5.26839      8.90722      3.76294        -0.300602     -1.446180      4.666335
      2.99565      0.16793      6.93006        -0.557915      0.366926      0.905292
     11.27380      8.42898      6.83471         0.099131      0.638500     -0.071330
     11.10321     10.16171      1.49078         0.088159      2.435900      0.925011
      2.99961      2.34686      1.58319        -2.199343      1.855338     -1.180537
     11.32155      2.10426      1.61534         0.240789      1.005608      0.123761
      9.11912      4.27723      3.94731         0.585807      0.413371     -0.497177
      1.05205      2.04102      9.57900        -1.999023     -1.077720     -0.272866
      0.62830      6.57217      9.47232         3.209123     -2.749452     -0.838016
      0.70364     10.30915      9.42605         0.820775      0.223378     -0.880127
      5.06033      2.12119      9.38037        -1.504110     -1.618253      0.866004
      4.97572      6.28242      9.40934         0.166990      0.914473     -0.207155
      5.09259     10.80259      9.57693         0.516111     -0.821202      0.316056
      9.08046      2.56211      9.68783         0.016216     -1.692193     -0.982900
      9.14486      6.59762      9.34673         0.141090     -0.411849      0.628661
      9.04695     10.40482      9.77860         0.207431      0.670192     -1.659614
      2.89273      6.53550      1.70687         0.534968     -0.864779     -1.156844
      3.36708     10.42425      1.87939        -1.670595      1.549454     -1.618294
      7.26340      1.94349      1.76926        -6.749361      4.813221      0.338098
      7.45390      6.66152      1.62447        -0.958131     -1.274765     -5.017749
      7.16403     10.20089      1.64018        -1.965257      3.748232     -0.867654
     11.15285      6.89355      1.33099         0.156768     -2.212126      1.493376
      8.87584      8.49690      4.10551         2.760219      1.996893      0.341424
    total drift:                                0.000045      0.000527      0.000268

  FREE ENERGIE OF THE ION-ELECTRON SYSTEM (eV)
  free  energy   TOTEN  =      -283.82500834 eV

  energy  without entropy=     -283.82500478  energy(sigma->0) =     -283.82500656

 total charge

[...]

 magnetization (x)

# of ion       s       p       d       tot
    1       -0.000   0.000   0.000   0.000
    2       -0.000   0.000   0.000   0.000
    3       -0.000   0.000   0.000   0.000
    4       -0.000  -0.000  -0.000  -0.000
    5        0.000  -0.000  -0.000  -0.000
    6       -0.000   0.000   0.000   0.000
    7        0.000  -0.000  -0.000  -0.000
    8        0.000   0.000   0.000   0.000
    9       -0.000   0.000   0.000   0.000
   10        0.000   0.000   0.000   0.000
   11       -0.000   0.000  -0.000   0.000
   12       -0.000   0.000   0.000   0.000
   13        0.000  -0.000  -0.000  -0.000
   14       -0.000   0.000  -0.000   0.000
   15        0.000   0.000   0.000   0.000
   16        0.000  -0.000  -0.000  -0.000
   17        0.000  -0.000  -0.000  -0.000
   18       -0.000   0.000   0.000   0.000
   19       -0.000  -0.000  -0.000  -0.000
   20       -0.000  -0.000  -0.000  -0.000
   21       -0.000   0.000   0.000   0.000
   22       -0.000   0.000   0.000   0.000
   23        0.000   0.000  -0.000   0.000
   24       -0.000   0.000   0.000   0.000
   25       -0.000   0.000   0.000   0.000
   26       -0.000   0.000   0.000   0.000
   27       -0.000   0.000   0.000   0.000
   28        0.000  -0.000  -0.000  -0.000
   29       -0.000   0.000   0.000   0.000
   30        0.000  -0.000  -0.000  -0.000
   31       -0.000   0.000   0.000   0.000
   32        0.000   0.000   0.000   0.000
   33        0.000  -0.000  -0.000  -0.000
   34       -0.000   0.000   0.000   0.000
   35        0.000   0.000   0.000   0.000
   36       -0.000  -0.000  -0.000  -0.000
   37       -0.000  -0.000   0.000  -0.000
   38       -0.000  -0.000   0.000  -0.000
   39       -0.000  -0.000  -0.000  -0.000
   40       -0.000  -0.000   0.000  -0.000
   41       -0.000  -0.000   0.000  -0.000
   42        0.000  -0.000  -0.000  -0.000
   43       -0.000  -0.000   0.000  -0.000
   44       -0.000  -0.000   0.000  -0.000
   45       -0.000  -0.000   0.000  -0.000
   46       -0.000  -0.000   0.000  -0.000
   47        0.000  -0.000  -0.000  -0.000
   48       -0.000  -0.000   0.000  -0.000
   49       -0.000  -0.000   0.000  -0.000
   50        0.000  -0.000  -0.000  -0.000
   51       -0.000  -0.000   0.000  -0.000
   52       -0.000  -0.000  -0.000  -0.000
   53       -0.000  -0.000  -0.000  -0.000
   54       -0.000  -0.000   0.000  -0.000
   55       -0.000  -0.000   0.000  -0.000
   56       -0.000  -0.000   0.000  -0.000
   57       -0.000  -0.000   0.000  -0.000
   58       -0.000  -0.000  -0.000  -0.000
   59       -0.000  -0.000   0.000  -0.000
   60       -0.000  -0.000   0.000  -0.000
   61       -0.000   0.000  -0.000   0.000
   62       -0.000  -0.000   0.000  -0.000
   63       -0.000  -0.000   0.000  -0.000
   64        0.000  -0.000  -0.000  -0.000
   65       -0.000  -0.000  -0.000  -0.000
   66       -0.000  -0.000   0.000  -0.000
   67       -0.000  -0.000   0.000  -0.000
   68       -0.000  -0.000   0.000  -0.000
   69        0.000  -0.000  -0.000  -0.000
   70        0.000  -0.000  -0.000  -0.000
   71       -0.000  -0.000  -0.000  -0.000
   72        0.000  -0.000  -0.000  -0.000
tot         -0.000  -0.000   0.000  -0.000