 vasp.6.4.2 20Jul23 (build Oct 12 2023 10:31:02) complex
 executed on              LinuxNV date 2025.05.17  14:35:23

 INCAR:
   ENCUT = 360.000000
   SIGMA = 0.050000
   EDIFF = 1.00e-06
   ALGO = Normal
   GGA = PE
   PREC = Normal
   SYSTEM = ./
   ICHARG = 2
   ISMEAR = 0
   ISPIN = 1
   ISTART = 0
   ISYM = 0
   KPAR = 2
   LMAXMIX = 4
   NELM = 100
   NPAR = 16
   LASPH = .TRUE.
   LCHARG = .FALSE.
   LWAVE = .FALSE.

 POTCAR:    PAW_PBE Ge 05Jan2001
 POTCAR:    PAW_PBE Se 06Sep2000
 POTCAR:    PAW_PBE Ge 05Jan2001
   VRHFIN =Ge: s2p2

   TITEL  = PAW_PBE Ge 05Jan2001
   POMASS =   72.610; ZVAL   =    4.000    mass and valenz
   ENMAX  =  173.807; ENMIN  =  130.355 eV

 POTCAR:    PAW_PBE Se 06Sep2000
   VRHFIN =Se: s2p4

   TITEL  = PAW_PBE Se 06Sep2000
   POMASS =   78.960; ZVAL   =    6.000    mass and valenz
   ENMAX  =  211.555; ENMIN  =  158.666 eV

  PAW_PBE Ge 05Jan2001                  :
  PAW_PBE Se 06Sep2000                  :

 POSCAR: Ge Se
  positions in cartesian coordinates
 exchange correlation table for  LEXCH =        8
   RHO(1)=    0.500       N(1)  =     2000
   RHO(2)=  100.500       N(2)  =     4000

 ion  position               nearest neighbor table
   1  0.844  0.829  0.116-   3 2.50   5 2.58   6 2.59   6 2.59
   2  0.344  0.329  0.384-   4 2.50   6 2.58   5 2.59   5 2.59
   3  0.750  0.881  0.884-   1 2.50   7 2.58   8 2.59   8 2.59
   4  0.250  0.381  0.616-   2 2.50   8 2.58   7 2.59   7 2.59
   5  0.844  0.705  0.355-   1 2.58   2 2.59   2 2.59
   6  0.344  0.205  0.145-   2 2.58   1 2.59   1 2.59
   7  0.750  0.005  0.645-   3 2.58   4 2.59   4 2.59
   8  0.250  0.505  0.855-   4 2.58   3 2.59   3 2.59

IMPORTANT INFORMATION: All symmetrisations will be switched off!
NOSYMM: (Re-)initialisation of all symmetry stuff for point group C_1.

                                     Primitive cell

  volume of cell :     184.8593

  direct lattice vectors                    reciprocal lattice vectors
     3.858100176  0.000000000  0.000000000     0.259194929  0.000000000  0.000000000
     0.000000000  4.526575088  0.000000000     0.000000000  0.220917577  0.000000000
     0.000000000  0.000000000 10.585176468     0.000000000  0.000000000  0.094471736

  length of vectors
     3.858100176  4.526575088 10.585176468     0.259194929  0.220917577  0.094471736

  position of ions in fractional coordinates (direct lattice)
     0.844202607  0.829341050  0.116293234
     0.344202655  0.329341076  0.383706663
     0.749999529  0.880803548  0.883706698
     0.249998913  0.380803590  0.616293301
     0.844202679  0.705086138  0.354521754
     0.344202558  0.205086238  0.145478256
     0.749999119  0.005058363  0.645478205
     0.249999423  0.505058446  0.854521738

  ion indices of the primitive-cell ions
   primitive index   ion index
                 1           1
                 2           2
                 3           3
                 4           4
                 5           5
                 6           6
                 7           7
                 8           8

 KPOINTS: KPOINTS created by Atomic Simulation Env

Automatic generation of k-mesh.
 Grid dimensions read from file:
 generate k-points for:    6    6    2

 Generating k-lattice:

  Cartesian coordinates                     Fractional coordinates (reciprocal lattice)
     0.043199155  0.000000000  0.000000000     0.166666667  0.000000000  0.000000000
     0.000000000  0.036819596  0.000000000     0.000000000  0.166666667  0.000000000
     0.000000000  0.000000000  0.047235868     0.000000000  0.000000000  0.500000000

  Length of vectors
     0.043199155  0.036819596  0.047235868

  Shift w.r.t. Gamma in fractional coordinates (k-lattice)
     0.000000000  0.000000000  0.000000000

 Subroutine IBZKPT returns following result:

 Found     40 irreducible k-points:

 Following reciprocal coordinates:
            Coordinates               Weight
  0.000000  0.000000  0.000000      1.000000
  0.166667  0.000000  0.000000      2.000000
  0.333333  0.000000  0.000000      2.000000
  0.500000  0.000000  0.000000      1.000000
  0.000000  0.166667  0.000000      2.000000
  0.166667  0.166667  0.000000      2.000000
  0.166667 -0.166667  0.000000      2.000000
  0.333333  0.166667  0.000000      2.000000
  0.333333 -0.166667  0.000000      2.000000
  0.500000  0.166667  0.000000      2.000000
  0.000000  0.333333  0.000000      2.000000
  0.166667  0.333333  0.000000      2.000000
  0.166667 -0.333333  0.000000      2.000000
  0.333333  0.333333  0.000000      2.000000
  0.333333 -0.333333  0.000000      2.000000
  0.500000  0.333333  0.000000      2.000000
  0.000000  0.500000  0.000000      1.000000
  0.166667  0.500000  0.000000      2.000000
  0.333333  0.500000  0.000000      2.000000
  0.500000  0.500000  0.000000      1.000000
  0.000000  0.000000  0.500000      1.000000
  0.166667  0.000000  0.500000      2.000000
  0.333333  0.000000  0.500000      2.000000
  0.500000  0.000000  0.500000      1.000000
  0.000000  0.166667  0.500000      2.000000
  0.166667  0.166667  0.500000      2.000000
  0.166667 -0.166667  0.500000      2.000000
  0.333333  0.166667  0.500000      2.000000
  0.333333 -0.166667  0.500000      2.000000
  0.500000  0.166667  0.500000      2.000000
  0.000000  0.333333  0.500000      2.000000
  0.166667  0.333333  0.500000      2.000000
  0.166667 -0.333333  0.500000      2.000000
  0.333333  0.333333  0.500000      2.000000
  0.333333 -0.333333  0.500000      2.000000
  0.500000  0.333333  0.500000      2.000000
  0.000000  0.500000  0.500000      1.000000
  0.166667  0.500000  0.500000      2.000000
  0.333333  0.500000  0.500000      2.000000
  0.500000  0.500000  0.500000      1.000000

 Following cartesian coordinates:
            Coordinates               Weight
  0.000000  0.000000  0.000000      1.000000
  0.043199  0.000000  0.000000      2.000000
  0.086398  0.000000  0.000000      2.000000
  0.129597  0.000000  0.000000      1.000000
  0.000000  0.036820  0.000000      2.000000
  0.043199  0.036820  0.000000      2.000000
  0.043199 -0.036820  0.000000      2.000000
  0.086398  0.036820  0.000000      2.000000
  0.086398 -0.036820  0.000000      2.000000
  0.129597  0.036820  0.000000      2.000000
  0.000000  0.073639  0.000000      2.000000
  0.043199  0.073639  0.000000      2.000000
  0.043199 -0.073639  0.000000      2.000000
  0.086398  0.073639  0.000000      2.000000
  0.086398 -0.073639  0.000000      2.000000
  0.129597  0.073639  0.000000      2.000000
  0.000000  0.110459  0.000000      1.000000
  0.043199  0.110459  0.000000      2.000000
  0.086398  0.110459  0.000000      2.000000
  0.129597  0.110459  0.000000      1.000000
  0.000000  0.000000  0.047236      1.000000
  0.043199  0.000000  0.047236      2.000000
  0.086398  0.000000  0.047236      2.000000
  0.129597  0.000000  0.047236      1.000000
  0.000000  0.036820  0.047236      2.000000
  0.043199  0.036820  0.047236      2.000000
  0.043199 -0.036820  0.047236      2.000000
  0.086398  0.036820  0.047236      2.000000
  0.086398 -0.036820  0.047236      2.000000
  0.129597  0.036820  0.047236      2.000000
  0.000000  0.073639  0.047236      2.000000
  0.043199  0.073639  0.047236      2.000000
  0.043199 -0.073639  0.047236      2.000000
  0.086398  0.073639  0.047236      2.000000
  0.086398 -0.073639  0.047236      2.000000
  0.129597  0.073639  0.047236      2.000000
  0.000000  0.110459  0.047236      1.000000
  0.043199  0.110459  0.047236      2.000000
  0.086398  0.110459  0.047236      2.000000
  0.129597  0.110459  0.047236      1.000000

 SYSTEM =  ./
 POSCAR =  Ge Se

 Startparameter for this run:
   NWRITE =      2    write-flag & timer
   PREC   = normal    normal or accurate (medium, high low for compatibility)
   ISTART =      0    job   : 0-new  1-cont  2-samecut
   ICHARG =      2    charge: 1-file 2-atom 10-const
   ISPIN  =      1    spin polarized calculation?
   LNONCOLLINEAR =      F non collinear calculations
   LSORBIT =      F    spin-orbit coupling
   INIWAV =      1    electr: 0-lowe 1-rand  2-diag
   LASPH  =      T    aspherical Exc in radial PAW
 Electronic Relaxation 1
   ENCUT  =  360.0 eV  26.46 Ry    5.14 a.u.   5.97  7.00 16.38*2*pi/ulx,y,z
   ENINI  =  360.0     initial cutoff
   ENAUG  =  446.8 eV  augmentation charge cutoff
   NELM   =    100;   NELMIN=  2; NELMDL= -5     # of ELM steps
   EDIFF  = 0.1E-05   stopping-criterion for ELM
   LREAL  =      F    real-space projection
   NLSPLINE    = F    spline interpolate recip. space projectors
   LCOMPAT=      F    compatible to vasp.4.4
   GGA_COMPAT  = T    GGA compatible to vasp.4.4-vasp.4.6
   LMAXPAW     = -100 max onsite density
   LMAXMIX     =    4 max onsite mixed and CHGCAR
   VOSKOWN=      0    Vosko Wilk Nusair interpolation
   ROPT   =    0.00000   0.00000
 Ionic relaxation
   EDIFFG = 0.1E-04   stopping-criterion for IOM
   NSW    =      0    number of steps for IOM
   NBLOCK =      1;   KBLOCK =      1    inner block; outer block
   IBRION =     -1    ionic relax: 0-MD 1-quasi-New 2-CG
   NFREE  =      0    steps in history (QN), initial steepest desc. (CG)
   ISIF   =      2    stress and relaxation
   IWAVPR =     10    prediction:  0-non 1-charg 2-wave 3-comb
   ISYM   =      0    0-nonsym 1-usesym 2-fastsym
   LCORR  =      T    Harris-Foulkes like correction to forces

   POTIM  = 0.5000    time-step for ionic-motion
   TEIN   =    0.0    initial temperature
   TEBEG  =    0.0;   TEEND  =   0.0 temperature during run
   SMASS  =  -3.00    Nose mass-parameter (am)
   estimated Nose-frequenzy (Omega)   =  0.10E-29 period in steps = 0.13E+47 mass=  -0.340E-27a.u.
   SCALEE = 1.0000    scale energy and forces
   NPACO  =    256;   APACO  = 10.0  distance and # of slots for P.C.
   PSTRESS=    0.0 pullay stress

  Mass of Ions in am
   POMASS =  72.61 78.96
  Ionic Valenz
   ZVAL   =   4.00  6.00
  Atomic Wigner-Seitz radii
  virtual crystal weights
   VCA    =   1.00  1.00
   NELECT =      40.0000    total number of electrons
   NUPDOWN=      -1.0000    fix difference up-down

 DOS related values:
   EMIN   =  10.00;   EMAX   =-10.00  energy-range for DOS
   EFERMI =   0.00;   METHOD = LEGACY
   ISMEAR =     0;   SIGMA  =   0.05  broadening in eV -4-tet -1-fermi 0-gaus

 Electronic relaxation 2 (details)
   IALGO  =     38    algorithm
   LDIAG  =      T    sub-space diagonalisation (order eigenvalues)
   LSUBROT=      F    optimize rotation matrix (better conditioning)
   TURBO    =      0    0=normal 1=particle mesh
   IRESTART =      0    0=no restart 2=restart with 2 vectors
   NREBOOT  =      0    no. of reboots
   NMIN     =      0    reboot dimension
   EREF     =   0.00    reference energy to select bands
   IMIX   =      4    mixing-type and parameters
     AMIX     =   0.40;   BMIX     =  1.00
     AMIX_MAG =   1.60;   BMIX_MAG =  1.00
     AMIN     =   0.10
     WC   =   100.;   INIMIX=   1;  MIXPRE=   1;  MAXMIX= -45

 Intra band minimization:
   WEIMIN = 0.0000     energy-eigenvalue tresh-hold
   EBREAK =  0.78E-08  absolut break condition
   DEPER  =   0.30     relativ break condition

   TIME   =   0.40     timestep for ELM

[...]
   0.04319915 -0.03681960  0.04723587       0.028
   0.08639831  0.03681960  0.04723587       0.028
   0.08639831 -0.03681960  0.04723587       0.028
   0.12959746  0.03681960  0.04723587       0.028
   0.00000000  0.07363919  0.04723587       0.028
   0.04319915  0.07363919  0.04723587       0.028
   0.04319915 -0.07363919  0.04723587       0.028
   0.08639831  0.07363919  0.04723587       0.028
   0.08639831 -0.07363919  0.04723587       0.028
   0.12959746  0.07363919  0.04723587       0.028
   0.00000000  0.11045879  0.04723587       0.014
   0.04319915  0.11045879  0.04723587       0.028
   0.08639831  0.11045879  0.04723587       0.028
   0.12959746  0.11045879  0.04723587       0.014

 k-points in reciprocal lattice and weights: KPOINTS created by Atomic Simulation Env
   0.00000000  0.00000000  0.00000000       0.014
   0.16666667  0.00000000  0.00000000       0.028
   0.33333333  0.00000000  0.00000000       0.028
   0.50000000  0.00000000  0.00000000       0.014
   0.00000000  0.16666667  0.00000000       0.028
   0.16666667  0.16666667  0.00000000       0.028
   0.16666667 -0.16666667  0.00000000       0.028
   0.33333333  0.16666667  0.00000000       0.028
   0.33333333 -0.16666667  0.00000000       0.028
   0.50000000  0.16666667  0.00000000       0.028
   0.00000000  0.33333333  0.00000000       0.028
   0.16666667  0.33333333  0.00000000       0.028
   0.16666667 -0.33333333  0.00000000       0.028
   0.33333333  0.33333333  0.00000000       0.028
   0.33333333 -0.33333333  0.00000000       0.028
   0.50000000  0.33333333  0.00000000       0.028
   0.00000000  0.50000000  0.00000000       0.014
   0.16666667  0.50000000  0.00000000       0.028
   0.33333333  0.50000000  0.00000000       0.028
   0.50000000  0.50000000  0.00000000       0.014
   0.00000000  0.00000000  0.50000000       0.014
   0.16666667  0.00000000  0.50000000       0.028
   0.33333333  0.00000000  0.50000000       0.028
   0.50000000  0.00000000  0.50000000       0.014
   0.00000000  0.16666667  0.50000000       0.028
   0.16666667  0.16666667  0.50000000       0.028
   0.16666667 -0.16666667  0.50000000       0.028
   0.33333333  0.16666667  0.50000000       0.028
   0.33333333 -0.16666667  0.50000000       0.028
   0.50000000  0.16666667  0.50000000       0.028
   0.00000000  0.33333333  0.50000000       0.028
   0.16666667  0.33333333  0.50000000       0.028
   0.16666667 -0.33333333  0.50000000       0.028
   0.33333333  0.33333333  0.50000000       0.028
   0.33333333 -0.33333333  0.50000000       0.028
   0.50000000  0.33333333  0.50000000       0.028
   0.00000000  0.50000000  0.50000000       0.014
   0.16666667  0.50000000  0.50000000       0.028
   0.33333333  0.50000000  0.50000000       0.028
   0.50000000  0.50000000  0.50000000       0.014

 position of ions in fractional coordinates (direct lattice)
   0.84420261  0.82934105  0.11629323
   0.34420266  0.32934108  0.38370666
   0.74999953  0.88080355  0.88370670
   0.24999891  0.38080359  0.61629330
   0.84420268  0.70508614  0.35452175
   0.34420256  0.20508624  0.14547826
   0.74999912  0.00505836  0.64547820
   0.24999942  0.50505845  0.85452174

 position of ions in cartesian coordinates  (Angst):
   3.25701823  3.75407454  1.23098441
   1.32796833  1.49078711  4.06160274
   2.89357331  3.98702340  9.35419135
   0.96452085  1.72373604  6.52357335
   3.25701851  3.19162535  3.75267533
   1.32796795  0.92833826  1.53991301
   2.89357173  0.02289706  6.83250071
   0.96452282  2.28618498  9.04526339

 k-point   1 :   0.0000 0.0000 0.0000  plane waves:    2825
 k-point   2 :   0.1667 0.0000 0.0000  plane waves:    2856
 k-point   3 :   0.3333 0.0000 0.0000  plane waves:    2864
 k-point   4 :   0.5000 0.0000 0.0000  plane waves:    2880
 k-point   5 :   0.0000 0.1667 0.0000  plane waves:    2850
 k-point   6 :   0.1667 0.1667 0.0000  plane waves:    2853
 k-point   7 :   0.1667-0.1667 0.0000  plane waves:    2853
 k-point   8 :   0.3333 0.1667 0.0000  plane waves:    2873
 k-point   9 :   0.3333-0.1667 0.0000  plane waves:    2873
 k-point  10 :   0.5000 0.1667 0.0000  plane waves:    2866
 k-point  11 :   0.0000 0.3333 0.0000  plane waves:    2864
 k-point  12 :   0.1667 0.3333 0.0000  plane waves:    2871
 k-point  13 :   0.1667-0.3333 0.0000  plane waves:    2871
 k-point  14 :   0.3333 0.3333 0.0000  plane waves:    2883
 k-point  15 :   0.3333-0.3333 0.0000  plane waves:    2883
 k-point  16 :   0.5000 0.3333 0.0000  plane waves:    2880
 k-point  17 :   0.0000 0.5000 0.0000  plane waves:    2874
 k-point  18 :   0.1667 0.5000 0.0000  plane waves:    2880
 k-point  19 :   0.3333 0.5000 0.0000  plane waves:    2888
 k-point  20 :   0.5000 0.5000 0.0000  plane waves:    2896
 k-point  21 :   0.0000 0.0000 0.5000  plane waves:    2828
 k-point  22 :   0.1667 0.0000 0.5000  plane waves:    2838
 k-point  23 :   0.3333 0.0000 0.5000  plane waves:    2868
 k-point  24 :   0.5000 0.0000 0.5000  plane waves:    2852
 k-point  25 :   0.0000 0.1667 0.5000  plane waves:    2846
 k-point  26 :   0.1667 0.1667 0.5000  plane waves:    2868
 k-point  27 :   0.1667-0.1667 0.5000  plane waves:    2868
 k-point  28 :   0.3333 0.1667 0.5000  plane waves:    2866
 k-point  29 :   0.3333-0.1667 0.5000  plane waves:    2866
 k-point  30 :   0.5000 0.1667 0.5000  plane waves:    2884
 k-point  31 :   0.0000 0.3333 0.5000  plane waves:    2852
 k-point  32 :   0.1667 0.3333 0.5000  plane waves:    2862
 k-point  33 :   0.1667-0.3333 0.5000  plane waves:    2862
 k-point  34 :   0.3333 0.3333 0.5000  plane waves:    2874
 k-point  35 :   0.3333-0.3333 0.5000  plane waves:    2874
 k-point  36 :   0.5000 0.3333 0.5000  plane waves:    2892
 k-point  37 :   0.0000 0.5000 0.5000  plane waves:    2872
 k-point  38 :   0.1667 0.5000 0.5000  plane waves:    2856
 k-point  39 :   0.3333 0.5000 0.5000  plane waves:    2876
 k-point  40 :   0.5000 0.5000 0.5000  plane waves:    2872

 maximum and minimum number of plane-waves per node :       592      553

 maximum number of plane-waves:      2896
 maximum index in each direction:
   IXMAX=    5   IYMAX=    7   IZMAX=   16
   IXMIN=   -6   IYMIN=   -7   IZMIN=  -16

 parallel 3D FFT for wavefunctions:
    minimum data exchange during FFTs selected (reduces bandwidth)
 parallel 3D FFT for charge:
    minimum data exchange during FFTs selected (reduces bandwidth)

 Broyden mixing: mesh for mixing (old mesh)
   NGX = 11   NGY = 15   NGZ = 33
  (NGX  = 36   NGY  = 48   NGZ  =100)
  gives a total of   5445 points

 initial charge density was supplied:
 charge density of overlapping atoms calculated
 number of electron      40.0000000 magnetization
 keeping initial charge density in first step

 Maximum index for augmentation-charges           312 (set IRDMAX)

 First call to EWALD:  gamma=   0.311
 Maximum number of real-space cells 4x 3x 2
 Maximum number of reciprocal cells 2x 2x 5

--------------------------------------- Ionic step        1  -------------------------------------------

--------------------------------------- Iteration      1(   1)  ---------------------------------------

 eigenvalue-minimisations  :  2560
 total energy-change (2. order) : 0.1304077E+03  (-0.1300117E+04)
 number of electron      40.0000000 magnetization
 augmentation part       40.0000000 magnetization

 Free energy of the ion-electron system (eV)
  alpha Z        PSCENC =        91.66130333
  Ewald energy   TEWEN  =     -1444.72230226
  -Hartree energ DENC   =      -116.60507186
  -exchange      EXHF   =         0.00000000
  -V(xc)+E(xc)   XCENC  =       -32.63229040
  PAW double counting   =      1193.78262552    -1080.73714043
  entropy T*S    EENTRO =        -0.00399067
  eigenvalues    EBANDS =        71.17992700
  atomic energy  EATOM  =      1448.48460880
  Solvation  Ediel_sol  =         0.00000000
  free energy    TOTEN  =       130.40766902 eV

  energy without entropy =      130.41165969  energy(sigma->0) =      130.40966436

[...]

 eigenvalue-minimisations  :  3712
 total energy-change (2. order) :-0.1554708E+03  (-0.1513772E+03)
 number of electron      40.0000000 magnetization
 augmentation part       40.0000000 magnetization

[...]

 Broyden mixing:
  rms(total) = 0.68167E+00    rms(broyden)= 0.68165E+00
  rms(prec ) = 0.75248E+00
  weight for this iteration     100.00

[...]

 eigenvalues of (default mixing * dielectric matrix)
  average eigenvalue GAMMA=   2.4152
  2.4152

[...]

 eigenvalue-minimisations  :  3376
 total energy-change (2. order) : 0.7962551E-03  (-0.1633013E-02)
 number of electron      40.0000028 magnetization
 augmentation part       -7.3287002 magnetization

[...]

 Broyden mixing:
  rms(total) = 0.29260E-03    rms(broyden)= 0.29260E-03
  rms(prec ) = 0.33087E-03
  weight for this iteration     100.00

 eigenvalues of (default mixing * dielectric matrix)
  average eigenvalue GAMMA=   1.7268
  2.9130  2.4735  0.9989  1.6090  1.6090  1.2421  1.2421

[...]

--------------------------------------- Iteration      1(  13)  ---------------------------------------

 eigenvalue-minimisations  :  2096
 total energy-change (2. order) :-0.2339257E-06  (-0.6743674E-07)
 number of electron      40.0000028 magnetization
 augmentation part       -7.3296154 magnetization

 Free energy of the ion-electron system (eV)
  alpha Z        PSCENC =        91.66130333
  Ewald energy   TEWEN  =     -1444.72230226
  -Hartree energ DENC   =      -125.48626278
  -exchange      EXHF   =         0.00000000
  -V(xc)+E(xc)   XCENC  =       -31.32646974
  PAW double counting   =      2034.35311412    -1922.06664505
  entropy T*S    EENTRO =        -0.00000000
  eigenvalues    EBANDS =       -83.84040484
  atomic energy  EATOM  =      1448.48460880
  Solvation  Ediel_sol  =         0.00000000
  free energy    TOTEN  =       -32.94305843 eV

  energy without entropy =      -32.94305843  energy(sigma->0) =      -32.94305843

 average (electrostatic) potential at core
  the test charge radii are     1.1631  1.0808
  (the norm of the test charge is              1.0000)
       1 -33.0836       2 -33.0836       3 -33.0836       4 -33.0836       5 -54.6432
       6 -54.6432       7 -54.6432       8 -54.6432

 E-fermi :   4.1324     XC(G=0):  -9.4656     alpha+bet : -9.1315

 Fermi energy:         4.1323725014

 k-point     1 :       0.0000    0.0000    0.0000
  band No.  band energies     occupation
      1     -10.7860      2.00000
      2     -10.2913      2.00000
      3      -9.5077      2.00000
      4      -8.8188      2.00000
      5      -5.2235      2.00000
      6      -3.7466      2.00000
      7      -3.4183      2.00000
      8      -1.4327      2.00000
      9      -1.4130      2.00000
     10      -0.1314      2.00000
     11       0.3005      2.00000
     12       0.3817      2.00000
     13       0.5093      2.00000
     14       0.7984      2.00000
     15       1.5777      2.00000
     16       1.8453      2.00000
     17       2.0385      2.00000
     18       2.2768      2.00000
     19       3.1732      2.00000
     20       3.6566      2.00000
     21       4.3657      0.00000
     22       5.9185      0.00000
     23       5.9714      0.00000
     24       6.0700      0.00000
     25       6.6022      0.00000
     26       6.7768      0.00000
     27       7.3848      0.00000
     28       8.0225      0.00000
     29       8.1101      0.00000
     30       9.5118      0.00000
     31       9.6474      0.00000
     32       9.9605      0.00000

[...]

 k-point    40 :       0.5000    0.5000    0.5000
  band No.  band energies     occupation
      1      -9.1612      2.00000
      2      -9.1612      2.00000
      3      -8.9937      2.00000
      4      -8.9937      2.00000
      5      -5.4736      2.00000
      6      -5.4736      2.00000
      7      -3.6533      2.00000
      8      -3.6533      2.00000
      9      -1.3547      2.00000
     10      -1.3547      2.00000
     11      -1.1443      2.00000
     12      -1.1443      2.00000
     13      -0.0221      2.00000
     14      -0.0220      2.00000
     15       0.1907      2.00000
     16       0.1907      2.00000
     17       1.7678      2.00000
     18       1.7678      2.00000
     19       2.3789      2.00000
     20       2.3789      2.00000
     21       5.5752      0.00000
     22       5.5753      0.00000
     23       7.4077      0.00000
     24       7.4077      0.00000
     25       8.1371      0.00000
     26       8.1371      0.00000
     27       9.1624      0.00000
     28       9.1624      0.00000
     29       9.7252      0.00000
     30       9.7252      0.00000
     31      10.2993      0.00000
     32      10.2993      0.00000

 soft charge-density along one line, spin component            1
         0         1         2         3         4         5         6         7         8         9
 total charge-density along one line

------------------------ aborting loop because EDIFF is reached ----------------------------------------

  FORCE on cell =-STRESS in cart. coord.  units (eV):
  Direction    XX          YY          ZZ          XY          YZ          ZX
  Alpha Z    91.66130    91.66130    91.66130
  Ewald    -473.13820  -521.36035  -450.22559    -7.03601     0.00007     0.00003
  Hartree    48.38367    33.67687    43.42722    -2.94658     0.00002     0.00000
  E(xc)    -142.23189  -142.27536  -142.81451    -0.01539     0.00000     0.00000
  Local    -146.48298   -91.17804  -170.23158    10.74788    -0.00008    -0.00002
  n-local   242.06558   241.27709   247.79548    -0.22302     0.00000    -0.00000
  augment   -11.27549   -11.78327   -12.18191     0.08928     0.00000     0.00000
  Kinetic   390.56207   400.25459   407.81569    -1.59504    -0.00002    -0.00001
  Fock        0.00000     0.00000     0.00000     0.00000     0.00000     0.00000
  Total      -0.45595     0.27282    15.24611    -0.97887    -0.00001    -0.00000
  in kB      -3.95174     2.36451   132.13816    -8.48391    -0.00005    -0.00004

 VOLUME and BASIS-vectors are now :
  energy-cutoff  :      360.00
  volume of cell :      184.86
      direct lattice vectors                 reciprocal lattice vectors
     3.858100176  0.000000000  0.000000000     0.259194929  0.000000000  0.000000000
     0.000000000  4.526575088  0.000000000     0.000000000  0.220917577  0.000000000
     0.000000000  0.000000000 10.585176468     0.000000000  0.000000000  0.094471736

  length of vectors
     3.858100176  4.526575088 10.585176468     0.259194929  0.220917577  0.094471736

 FORCES acting on ions
    electron-ion (+dipol)            ewald-force                    non-local-force                 convergence-correction
   -.132E+01 0.146E+02 0.110E+02   0.128E+01 -.170E+02 -.127E+02   0.182E+00 0.246E+01 0.291E+01   -.457E-04 0.476E-04 -.337E-03
   -.132E+01 0.146E+02 -.110E+02   0.128E+01 -.170E+02 0.127E+02   0.182E+00 0.246E+01 -.291E+01   -.458E-04 0.475E-04 0.336E-03
   0.132E+01 -.146E+02 -.110E+02   -.128E+01 0.170E+02 0.127E+02   -.182E+00 -.246E+01 -.291E+01   0.459E-04 -.478E-04 0.336E-03
   0.132E+01 -.146E+02 0.110E+02   -.128E+01 0.170E+02 -.127E+02   -.182E+00 -.246E+01 0.291E+01   0.460E-04 -.475E-04 -.335E-03
   0.256E-01 -.157E+02 -.188E+02   -.115E-01 0.174E+02 0.203E+02   -.107E+00 -.210E+01 -.105E+01   0.741E-04 -.229E-03 0.303E-03
   0.255E-01 -.157E+02 0.188E+02   -.115E-01 0.174E+02 -.203E+02   -.107E+00 -.210E+01 0.105E+01   0.736E-04 -.228E-03 -.304E-03
   -.255E-01 0.157E+02 0.188E+02   0.115E-01 -.174E+02 -.203E+02   0.107E+00 0.210E+01 0.105E+01   -.740E-04 0.229E-03 -.302E-03
   -.256E-01 0.157E+02 -.188E+02   0.116E-01 -.174E+02 0.203E+02   0.107E+00 0.210E+01 -.105E+01   -.736E-04 0.229E-03 0.303E-03
   0.595E-04 0.195E-05 0.648E-06   0.308E-14 0.000E+00 -.249E-13   -.794E-04 0.542E-03 -.133E-05   0.382E-06 0.220E-06 -.878E-08

 POSITION                                       TOTAL-FORCE (eV/Angst)
      3.25702      3.75407      1.23098         0.139779     -0.013350      1.220510
      1.32797      1.49079      4.06160         0.139780     -0.013353     -1.220495
      2.89357      3.98702      9.35419        -0.139831      0.013309     -1.220483
      0.96452      1.72374      6.52357        -0.139828      0.013306      1.220469
      3.25702      3.19163      3.75268        -0.093370     -0.338836      0.448819
      1.32797      0.92834      1.53991        -0.093368     -0.338841     -0.448823
      2.89357      0.02290      6.83250         0.093419      0.338884     -0.448960
      0.96452      2.28618      9.04526         0.093419      0.338881      0.448964
    total drift:                               -0.000020      0.000544     -0.000001

  FREE ENERGIE OF THE ION-ELECTRON SYSTEM (eV)
  free  energy   TOTEN  =       -32.94305843 eV

  energy  without entropy=      -32.94305843  energy(sigma->0) =      -32.94305843