 vasp.6.4.2 20Jul23 (build Oct 12 2023 10:31:02) complex
 executed on              LinuxNV date 2025.05.28  11:19:30

 INCAR:
   ENCUT = 360.000000
   SIGMA = 0.050000
   EDIFF = 1.00e-06
   ALGO = Normal
   GGA = PE
   PREC = Normal
   SYSTEM = ./
   ICHARG = 2
   ISMEAR = 0
   ISPIN = 1
   ISTART = 0
   ISYM = 0
   KPAR = 2
   LMAXMIX = 4
   NELM = 100
   NPAR = 16
   LASPH = .TRUE.
   LCHARG = .FALSE.
   LWAVE = .FALSE.

 POTCAR:    PAW_PBE Ge 05Jan2001
 POTCAR:    PAW_PBE Se 06Sep2000
 POTCAR:    PAW_PBE Ge 05Jan2001
   VRHFIN =Ge: s2p2

   TITEL  = PAW_PBE Ge 05Jan2001
   POMASS =   72.610; ZVAL   =    4.000    mass and valenz
   ENMAX  =  173.807; ENMIN  =  130.355 eV

 POTCAR:    PAW_PBE Se 06Sep2000
   VRHFIN =Se: s2p4

   TITEL  = PAW_PBE Se 06Sep2000
   POMASS =   78.960; ZVAL   =    6.000    mass and valenz
   ENMAX  =  211.555; ENMIN  =  158.666 eV

  PAW_PBE Ge 05Jan2001                  :
  PAW_PBE Se 06Sep2000                  :

 POSCAR: Ge Se
  positions in cartesian coordinates
 exchange correlation table for  LEXCH =        8
   RHO(1)=    0.500       N(1)  =     2000
   RHO(2)=  100.500       N(2)  =     4000

 ion  position               nearest neighbor table
   1  0.250  1.000  0.146-   5 2.43
   2  0.750  0.500  0.354-   6 2.43
   3  0.750  0.000  0.854-   7 2.43
   4  0.250  0.500  0.646-   8 2.43
   5  0.250  1.000  0.363-   1 2.43
   6  0.750  0.500  0.137-   2 2.43
   7  0.750  0.000  0.637-   3 2.43
   8  0.250  0.500  0.863-   4 2.43

IMPORTANT INFORMATION: All symmetrisations will be switched off!
NOSYMM: (Re-)initialisation of all symmetry stuff for point group C_1.

                                     Primitive cell

  volume of cell :     230.2261

  direct lattice vectors                    reciprocal lattice vectors
     4.350000000  0.000000000  0.000000000     0.229885057  0.000000000  0.000000000
     0.000000000  4.750000000  0.000000000     0.000000000  0.210526316  0.000000000
     0.000000000  0.000000000 11.142221000     0.000000000  0.000000000  0.089748713

  length of vectors
     4.350000000  4.750000000 11.142221000     0.229885057  0.210526316  0.089748713

  position of ions in fractional coordinates (direct lattice)
     0.250000000  0.999731827  0.145532870
     0.750000000  0.499731827  0.354467130
     0.750000000  0.000268173  0.854467130
     0.250000000  0.500268173  0.645532870
     0.250000000  0.999750527  0.363468768
     0.750000000  0.499750527  0.136531232
     0.750000000  0.000249473  0.636531232
     0.250000000  0.500249473  0.863468768

  ion indices of the primitive-cell ions
   primitive index   ion index
                 1           1
                 2           2
                 3           3
                 4           4
                 5           5
                 6           6
                 7           7
                 8           8

 KPOINTS: KPOINTS created by Atomic Simulation Env

Automatic generation of k-mesh.
 Grid dimensions read from file:
 generate k-points for:    6    6    2

 Generating k-lattice:

  Cartesian coordinates                     Fractional coordinates (reciprocal lattice)
     0.038314176  0.000000000  0.000000000     0.166666667  0.000000000  0.000000000
     0.000000000  0.035087719  0.000000000     0.000000000  0.166666667  0.000000000
     0.000000000  0.000000000  0.044874357     0.000000000  0.000000000  0.500000000

  Length of vectors
     0.038314176  0.035087719  0.044874357

  Shift w.r.t. Gamma in fractional coordinates (k-lattice)
     0.000000000  0.000000000  0.000000000

 Subroutine IBZKPT returns following result:

 Found     40 irreducible k-points:

 Following reciprocal coordinates:
            Coordinates               Weight
  0.000000  0.000000  0.000000      1.000000
  0.166667  0.000000  0.000000      2.000000
  0.333333  0.000000  0.000000      2.000000
  0.500000  0.000000  0.000000      1.000000
  0.000000  0.166667  0.000000      2.000000
  0.166667  0.166667  0.000000      2.000000
  0.166667 -0.166667  0.000000      2.000000
  0.333333  0.166667  0.000000      2.000000
  0.333333 -0.166667  0.000000      2.000000
  0.500000  0.166667  0.000000      2.000000
  0.000000  0.333333  0.000000      2.000000
  0.166667  0.333333  0.000000      2.000000
  0.166667 -0.333333  0.000000      2.000000
  0.333333  0.333333  0.000000      2.000000
  0.333333 -0.333333  0.000000      2.000000
  0.500000  0.333333  0.000000      2.000000
  0.000000  0.500000  0.000000      1.000000
  0.166667  0.500000  0.000000      2.000000
  0.333333  0.500000  0.000000      2.000000
  0.500000  0.500000  0.000000      1.000000
  0.000000  0.000000  0.500000      1.000000
  0.166667  0.000000  0.500000      2.000000
  0.333333  0.000000  0.500000      2.000000
  0.500000  0.000000  0.500000      1.000000
  0.000000  0.166667  0.500000      2.000000
  0.166667  0.166667  0.500000      2.000000
  0.166667 -0.166667  0.500000      2.000000
  0.333333  0.166667  0.500000      2.000000
  0.333333 -0.166667  0.500000      2.000000
  0.500000  0.166667  0.500000      2.000000
  0.000000  0.333333  0.500000      2.000000
  0.166667  0.333333  0.500000      2.000000
  0.166667 -0.333333  0.500000      2.000000
  0.333333  0.333333  0.500000      2.000000
  0.333333 -0.333333  0.500000      2.000000
  0.500000  0.333333  0.500000      2.000000
  0.000000  0.500000  0.500000      1.000000
  0.166667  0.500000  0.500000      2.000000
  0.333333  0.500000  0.500000      2.000000
  0.500000  0.500000  0.500000      1.000000

 Following cartesian coordinates:
            Coordinates               Weight
  0.000000  0.000000  0.000000      1.000000
  0.038314  0.000000  0.000000      2.000000
  0.076628  0.000000  0.000000      2.000000
  0.114943  0.000000  0.000000      1.000000
  0.000000  0.035088  0.000000      2.000000
  0.038314  0.035088  0.000000      2.000000
  0.038314 -0.035088  0.000000      2.000000
  0.076628  0.035088  0.000000      2.000000
  0.076628 -0.035088  0.000000      2.000000
  0.114943  0.035088  0.000000      2.000000
  0.000000  0.070175  0.000000      2.000000
  0.038314  0.070175  0.000000      2.000000
  0.038314 -0.070175  0.000000      2.000000
  0.076628  0.070175  0.000000      2.000000
  0.076628 -0.070175  0.000000      2.000000
  0.114943  0.070175  0.000000      2.000000
  0.000000  0.105263  0.000000      1.000000
  0.038314  0.105263  0.000000      2.000000
  0.076628  0.105263  0.000000      2.000000
  0.114943  0.105263  0.000000      1.000000
  0.000000  0.000000  0.044874      1.000000
  0.038314  0.000000  0.044874      2.000000
  0.076628  0.000000  0.044874      2.000000
  0.114943  0.000000  0.044874      1.000000
  0.000000  0.035088  0.044874      2.000000
  0.038314  0.035088  0.044874      2.000000
  0.038314 -0.035088  0.044874      2.000000
  0.076628  0.035088  0.044874      2.000000
  0.076628 -0.035088  0.044874      2.000000
  0.114943  0.035088  0.044874      2.000000
  0.000000  0.070175  0.044874      2.000000
  0.038314  0.070175  0.044874      2.000000
  0.038314 -0.070175  0.044874      2.000000
  0.076628  0.070175  0.044874      2.000000
  0.076628 -0.070175  0.044874      2.000000
  0.114943  0.070175  0.044874      2.000000
  0.000000  0.105263  0.044874      1.000000
  0.038314  0.105263  0.044874      2.000000
  0.076628  0.105263  0.044874      2.000000
  0.114943  0.105263  0.044874      1.000000

 SYSTEM =  ./
 POSCAR =  Ge Se

 Startparameter for this run:
   NWRITE =      2    write-flag & timer
   PREC   = normal    normal or accurate (medium, high low for compatibility)
   ISTART =      0    job   : 0-new  1-cont  2-samecut
   ICHARG =      2    charge: 1-file 2-atom 10-const
   ISPIN  =      1    spin polarized calculation?
   LNONCOLLINEAR =      F non collinear calculations
   LSORBIT =      F    spin-orbit coupling
   INIWAV =      1    electr: 0-lowe 1-rand  2-diag
   LASPH  =      T    aspherical Exc in radial PAW
 Electronic Relaxation 1
   ENCUT  =  360.0 eV  26.46 Ry    5.14 a.u.   6.73  7.35 17.24*2*pi/ulx,y,z
   ENINI  =  360.0     initial cutoff
   ENAUG  =  446.8 eV  augmentation charge cutoff
   NELM   =    100;   NELMIN=  2; NELMDL= -5     # of ELM steps
   EDIFF  = 0.1E-05   stopping-criterion for ELM
   LREAL  =      F    real-space projection
   NLSPLINE    = F    spline interpolate recip. space projectors
   LCOMPAT=      F    compatible to vasp.4.4
   GGA_COMPAT  = T    GGA compatible to vasp.4.4-vasp.4.6
   LMAXPAW     = -100 max onsite density
   LMAXMIX     =    4 max onsite mixed and CHGCAR
   VOSKOWN=      0    Vosko Wilk Nusair interpolation
   ROPT   =    0.00000   0.00000
 Ionic relaxation
   EDIFFG = 0.1E-04   stopping-criterion for IOM
   NSW    =      0    number of steps for IOM
   NBLOCK =      1;   KBLOCK =      1    inner block; outer block
   IBRION =     -1    ionic relax: 0-MD 1-quasi-New 2-CG
   NFREE  =      0    steps in history (QN), initial steepest desc. (CG)
   ISIF   =      2    stress and relaxation
   IWAVPR =     10    prediction:  0-non 1-charg 2-wave 3-comb
   ISYM   =      0    0-nonsym 1-usesym 2-fastsym
   LCORR  =      T    Harris-Foulkes like correction to forces

   POTIM  = 0.5000    time-step for ionic-motion
   TEIN   =    0.0    initial temperature
   TEBEG  =    0.0;   TEEND  =   0.0 temperature during run
   SMASS  =  -3.00    Nose mass-parameter (am)
   estimated Nose-frequenzy (Omega)   =  0.10E-29 period in steps = 0.13E+47 mass=  -0.432E-27a.u.
   SCALEE = 1.0000    scale energy and forces
   NPACO  =    256;   APACO  = 10.0  distance and # of slots for P.C.
   PSTRESS=    0.0 pullay stress

  Mass of Ions in am
   POMASS =  72.61 78.96
  Ionic Valenz
   ZVAL   =   4.00  6.00
  Atomic Wigner-Seitz radii
  virtual crystal weights
   VCA    =   1.00  1.00
   NELECT =      40.0000    total number of electrons
   NUPDOWN=      -1.0000    fix difference up-down

 DOS related values:
   EMIN   =  10.00;   EMAX   =-10.00  energy-range for DOS
   EFERMI =   0.00;   METHOD = LEGACY
   ISMEAR =     0;   SIGMA  =   0.05  broadening in eV -4-tet -1-fermi 0-gaus

 Electronic relaxation 2 (details)
   IALGO  =     38    algorithm
   LDIAG  =      T    sub-space diagonalisation (order eigenvalues)
   LSUBROT=      F    optimize rotation matrix (better conditioning)
   TURBO    =      0    0=normal 1=particle mesh
   IRESTART =      0    0=no restart 2=restart with 2 vectors
   NREBOOT  =      0    no. of reboots
   NMIN     =      0    reboot dimension
   EREF     =   0.00    reference energy to select bands
   IMIX   =      4    mixing-type and parameters
     AMIX     =   0.40;   BMIX     =  1.00
     AMIX_MAG =   1.60;   BMIX_MAG =  1.00
     AMIN     =   0.10
     WC   =   100.;   INIMIX=   1;  MIXPRE=   1;  MAXMIX= -45

 Intra band minimization:
   WEIMIN = 0.0000     energy-eigenvalue tresh-hold
   EBREAK =  0.78E-08  absolut break condition
   DEPER  =   0.30     relativ break condition

   TIME   =   0.40     timestep for ELM

  volume/ion in A,a.u.               =      28.78       194.21
  Fermi-wavevector in a.u.,A,eV,Ry     =   0.913503  1.726270 11.353893  0.834488
  Thomas-Fermi vector in A             =   2.038022

 Write flags
[...]
   0.03831418 -0.03508772  0.04487436       0.028
   0.07662835  0.03508772  0.04487436       0.028
   0.07662835 -0.03508772  0.04487436       0.028
   0.11494253  0.03508772  0.04487436       0.028
   0.00000000  0.07017544  0.04487436       0.028
   0.03831418  0.07017544  0.04487436       0.028
   0.03831418 -0.07017544  0.04487436       0.028
   0.07662835  0.07017544  0.04487436       0.028
   0.07662835 -0.07017544  0.04487436       0.028
   0.11494253  0.07017544  0.04487436       0.028
   0.00000000  0.10526316  0.04487436       0.014
   0.03831418  0.10526316  0.04487436       0.028
   0.07662835  0.10526316  0.04487436       0.028
   0.11494253  0.10526316  0.04487436       0.014

 k-points in reciprocal lattice and weights: KPOINTS created by Atomic Simulation Env
   0.00000000  0.00000000  0.00000000       0.014
   0.16666667  0.00000000  0.00000000       0.028
   0.33333333  0.00000000  0.00000000       0.028
   0.50000000  0.00000000  0.00000000       0.014
   0.00000000  0.16666667  0.00000000       0.028
   0.16666667  0.16666667  0.00000000       0.028
   0.16666667 -0.16666667  0.00000000       0.028
   0.33333333  0.16666667  0.00000000       0.028
   0.33333333 -0.16666667  0.00000000       0.028
   0.50000000  0.16666667  0.00000000       0.028
   0.00000000  0.33333333  0.00000000       0.028
   0.16666667  0.33333333  0.00000000       0.028
   0.16666667 -0.33333333  0.00000000       0.028
   0.33333333  0.33333333  0.00000000       0.028
   0.33333333 -0.33333333  0.00000000       0.028
   0.50000000  0.33333333  0.00000000       0.028
   0.00000000  0.50000000  0.00000000       0.014
   0.16666667  0.50000000  0.00000000       0.028
   0.33333333  0.50000000  0.00000000       0.028
   0.50000000  0.50000000  0.00000000       0.014
   0.00000000  0.00000000  0.50000000       0.014
   0.16666667  0.00000000  0.50000000       0.028
   0.33333333  0.00000000  0.50000000       0.028
   0.50000000  0.00000000  0.50000000       0.014
   0.00000000  0.16666667  0.50000000       0.028
   0.16666667  0.16666667  0.50000000       0.028
   0.16666667 -0.16666667  0.50000000       0.028
   0.33333333  0.16666667  0.50000000       0.028
   0.33333333 -0.16666667  0.50000000       0.028
   0.50000000  0.16666667  0.50000000       0.028
   0.00000000  0.33333333  0.50000000       0.028
   0.16666667  0.33333333  0.50000000       0.028
   0.16666667 -0.33333333  0.50000000       0.028
   0.33333333  0.33333333  0.50000000       0.028
   0.33333333 -0.33333333  0.50000000       0.028
   0.50000000  0.33333333  0.50000000       0.028
   0.00000000  0.50000000  0.50000000       0.014
   0.16666667  0.50000000  0.50000000       0.028
   0.33333333  0.50000000  0.50000000       0.028
   0.50000000  0.50000000  0.50000000       0.014

 position of ions in fractional coordinates (direct lattice)
   0.25000000  0.99973183  0.14553287
   0.75000000  0.49973183  0.35446713
   0.75000000  0.00026817  0.85446713
   0.25000000  0.50026817  0.64553287
   0.25000000  0.99975053  0.36346877
   0.75000000  0.49975053  0.13653123
   0.75000000  0.00024947  0.63653123
   0.25000000  0.50024947  0.86346877

 position of ions in cartesian coordinates  (Angst):
   1.08750000  4.74872618  1.62155940
   3.26250000  2.37372618  3.94955110
   3.26250000  0.00127382  9.52066160
   1.08750000  2.37627382  7.19266990
   1.08750000  4.74881500  4.04984934
   3.26250000  2.37381500  1.52126116
   3.26250000  0.00118500  7.09237166
   1.08750000  2.37618500  9.62095984

 k-point   1 :   0.0000 0.0000 0.0000  plane waves:    3577
 k-point   2 :   0.1667 0.0000 0.0000  plane waves:    3557
 k-point   3 :   0.3333 0.0000 0.0000  plane waves:    3590
 k-point   4 :   0.5000 0.0000 0.0000  plane waves:    3574
 k-point   5 :   0.0000 0.1667 0.0000  plane waves:    3575
 k-point   6 :   0.1667 0.1667 0.0000  plane waves:    3570
 k-point   7 :   0.1667-0.1667 0.0000  plane waves:    3570
 k-point   8 :   0.3333 0.1667 0.0000  plane waves:    3573
 k-point   9 :   0.3333-0.1667 0.0000  plane waves:    3573
 k-point  10 :   0.5000 0.1667 0.0000  plane waves:    3578
 k-point  11 :   0.0000 0.3333 0.0000  plane waves:    3565
 k-point  12 :   0.1667 0.3333 0.0000  plane waves:    3566
 k-point  13 :   0.1667-0.3333 0.0000  plane waves:    3566
 k-point  14 :   0.3333 0.3333 0.0000  plane waves:    3557
 k-point  15 :   0.3333-0.3333 0.0000  plane waves:    3557
 k-point  16 :   0.5000 0.3333 0.0000  plane waves:    3546
 k-point  17 :   0.0000 0.5000 0.0000  plane waves:    3602
 k-point  18 :   0.1667 0.5000 0.0000  plane waves:    3574
 k-point  19 :   0.3333 0.5000 0.0000  plane waves:    3544
 k-point  20 :   0.5000 0.5000 0.0000  plane waves:    3560
 k-point  21 :   0.0000 0.0000 0.5000  plane waves:    3570
 k-point  22 :   0.1667 0.0000 0.5000  plane waves:    3568
 k-point  23 :   0.3333 0.0000 0.5000  plane waves:    3564
 k-point  24 :   0.5000 0.0000 0.5000  plane waves:    3608
 k-point  25 :   0.0000 0.1667 0.5000  plane waves:    3582
 k-point  26 :   0.1667 0.1667 0.5000  plane waves:    3568
 k-point  27 :   0.1667-0.1667 0.5000  plane waves:    3568
 k-point  28 :   0.3333 0.1667 0.5000  plane waves:    3568
 k-point  29 :   0.3333-0.1667 0.5000  plane waves:    3568
 k-point  30 :   0.5000 0.1667 0.5000  plane waves:    3580
 k-point  31 :   0.0000 0.3333 0.5000  plane waves:    3574
 k-point  32 :   0.1667 0.3333 0.5000  plane waves:    3574
 k-point  33 :   0.1667-0.3333 0.5000  plane waves:    3574
 k-point  34 :   0.3333 0.3333 0.5000  plane waves:    3560
 k-point  35 :   0.3333-0.3333 0.5000  plane waves:    3560
 k-point  36 :   0.5000 0.3333 0.5000  plane waves:    3564
 k-point  37 :   0.0000 0.5000 0.5000  plane waves:    3552
 k-point  38 :   0.1667 0.5000 0.5000  plane waves:    3564
 k-point  39 :   0.3333 0.5000 0.5000  plane waves:    3576
 k-point  40 :   0.5000 0.5000 0.5000  plane waves:    3560

 maximum and minimum number of plane-waves per node :       916      854

 maximum number of plane-waves:      3608
 maximum index in each direction:
   IXMAX=    6   IYMAX=    7   IZMAX=   17
   IXMIN=   -7   IYMIN=   -7   IZMIN=  -17

 parallel 3D FFT for wavefunctions:
    minimum data exchange during FFTs selected (reduces bandwidth)
 parallel 3D FFT for charge:
    minimum data exchange during FFTs selected (reduces bandwidth)

 Broyden mixing: mesh for mixing (old mesh)
   NGX = 13   NGY = 15   NGZ = 35
  (NGX  = 40   NGY  = 48   NGZ  =108)
  gives a total of   6825 points

 initial charge density was supplied:
 charge density of overlapping atoms calculated
 number of electron      40.0000000 magnetization
 keeping initial charge density in first step

 Maximum index for augmentation-charges            54 (set IRDMAX)

 First call to EWALD:  gamma=   0.289
 Maximum number of real-space cells 4x 3x 2
 Maximum number of reciprocal cells 2x 2x 5

--------------------------------------- Ionic step        1  -------------------------------------------

--------------------------------------- Iteration      1(   1)  ---------------------------------------

 eigenvalue-minimisations  :  2560
 total energy-change (2. order) : 0.1294374E+03  (-0.1246172E+04)
 number of electron      40.0000000 magnetization
 augmentation part       40.0000000 magnetization

 Free energy of the ion-electron system (eV)
  alpha Z        PSCENC =        73.59913751
  Ewald energy   TEWEN  =     -1340.16667327
  -Hartree energ DENC   =      -150.00462625
  -exchange      EXHF   =         0.00000000
  -V(xc)+E(xc)   XCENC  =       -35.82853637
  PAW double counting   =      1193.78262552    -1080.73714043
  entropy T*S    EENTRO =        -0.00543559
  eigenvalues    EBANDS =        20.31345645
  atomic energy  EATOM  =      1448.48460880
  Solvation  Ediel_sol  =         0.00000000
  free energy    TOTEN  =       129.43741637 eV

  energy without entropy =      129.44285197  energy(sigma->0) =      129.44013417

[...]

 eigenvalue-minimisations  :  3792
 total energy-change (2. order) :-0.1531830E+03  (-0.1478891E+03)
 number of electron      40.0000000 magnetization
 augmentation part       40.0000000 magnetization

[...]

 Broyden mixing:
  rms(total) = 0.62833E+00    rms(broyden)= 0.62831E+00
  rms(prec ) = 0.81282E+00
  weight for this iteration     100.00

[...]

 eigenvalues of (default mixing * dielectric matrix)
  average eigenvalue GAMMA=   1.5629
  1.5629

[...]

 eigenvalue-minimisations  :  2832
 total energy-change (2. order) : 0.2154005E-05  (-0.1114447E-05)
 number of electron      40.0000067 magnetization
 augmentation part       -7.3616027 magnetization

[...]

 Broyden mixing:
  rms(total) = 0.30148E-03    rms(broyden)= 0.30148E-03
  rms(prec ) = 0.31165E-03
  weight for this iteration     100.00

 eigenvalues of (default mixing * dielectric matrix)
  average eigenvalue GAMMA=   1.6093
  3.0175  2.3383  2.3383  1.1417  1.1417  0.9388  0.9789  0.9789

[...]

--------------------------------------- Iteration      1(  14)  ---------------------------------------

 eigenvalue-minimisations  :  1408
 total energy-change (2. order) :-0.4005546E-06  (-0.2706491E-07)
 number of electron      40.0000067 magnetization
 augmentation part       -7.3616352 magnetization

 Free energy of the ion-electron system (eV)
  alpha Z        PSCENC =        73.59913751
  Ewald energy   TEWEN  =     -1340.16667327
  -Hartree energ DENC   =      -160.19891592
  -exchange      EXHF   =         0.00000000
  -V(xc)+E(xc)   XCENC  =       -34.74446615
  PAW double counting   =      1717.34830272    -1604.65564249
  entropy T*S    EENTRO =        -0.00000000
  eigenvalues    EBANDS =      -131.64669572
  atomic energy  EATOM  =      1448.48460880
  Solvation  Ediel_sol  =         0.00000000
  free energy    TOTEN  =       -31.98034451 eV

  energy without entropy =      -31.98034451  energy(sigma->0) =      -31.98034451

 average (electrostatic) potential at core
  the test charge radii are     1.1631  1.0808
  (the norm of the test charge is              1.0000)
       1 -35.2511       2 -35.2511       3 -35.2511       4 -35.2511       5 -55.9608
       6 -55.9608       7 -55.9608       8 -55.9608

 E-fermi :   1.5953     XC(G=0):  -8.6099     alpha+bet : -7.3321

 Fermi energy:         1.5953190656

 k-point     1 :       0.0000    0.0000    0.0000
  band No.  band energies     occupation
      1     -11.3348      2.00000
      2     -11.0681      2.00000
      3     -10.2821      2.00000
      4      -9.9684      2.00000
      5      -6.0657      2.00000
      6      -5.3780      2.00000
      7      -4.6996      2.00000
      8      -4.5513      2.00000
      9      -2.1462      2.00000
     10      -1.4971      2.00000
     11      -1.0822      2.00000
     12      -0.8354      2.00000
     13      -0.4130      2.00000
     14       0.1224      2.00000
     15       0.3488      2.00000
     16       0.5663      2.00000
     17       0.6518      2.00000
     18       0.8410      2.00000
     19       0.9976      2.00000
     20       1.3638      2.00000
     21       3.5872      0.00000
     22       4.0847      0.00000
     23       4.5319      0.00000
     24       4.5603      0.00000
     25       4.6279      0.00000
     26       5.4510      0.00000
     27       5.7476      0.00000
     28       6.0541      0.00000
     29       6.0760      0.00000
     30       6.2008      0.00000
     31       6.2052      0.00000
     32       6.2782      0.00000

[...]

 k-point    40 :       0.5000    0.5000    0.5000
  band No.  band energies     occupation
      1     -10.4200      2.00000
      2     -10.4200      2.00000
      3     -10.4200      2.00000
      4     -10.4200      2.00000
      5      -5.3070      2.00000
      6      -5.3070      2.00000
      7      -5.3070      2.00000
      8      -5.3070      2.00000
      9      -2.2350      2.00000
     10      -2.2350      2.00000
     11      -2.2350      2.00000
     12      -2.2350      2.00000
     13      -0.8751      2.00000
     14      -0.8751      2.00000
     15      -0.8751      2.00000
     16      -0.8751      2.00000
     17       0.6321      2.00000
     18       0.6321      2.00000
     19       0.6321      2.00000
     20       0.6321      2.00000
     21       4.9200      0.00000
     22       4.9200      0.00000
     23       4.9200      0.00000
     24       4.9200      0.00000
     25       5.4399      0.00000
     26       5.4399      0.00000
     27       5.4399      0.00000
     28       5.4399      0.00000
     29       6.4193      0.00000
     30       6.4193      0.00000
     31       6.4193      0.00000
     32       6.4193      0.00000

 soft charge-density along one line, spin component            1
         0         1         2         3         4         5         6         7         8         9
 total charge-density along one line

------------------------ aborting loop because EDIFF is reached ----------------------------------------

  FORCE on cell =-STRESS in cart. coord.  units (eV):
  Direction    XX          YY          ZZ          XY          YZ          ZX
  Alpha Z    73.59914    73.59914    73.59914
  Ewald    -488.96660  -481.95778  -369.24382     0.00000    -0.00000    -0.00000
  Hartree    54.98800    47.10728    58.10094     0.00000    -0.00000     0.00000
  E(xc)    -137.90286  -137.60368  -139.62401    -0.00000     0.00000     0.00000
  Local    -118.95478  -115.79864  -240.23003    -0.00000     0.00000     0.00000
  n-local   230.59354   230.27973   246.63590     0.00000    -0.00000    -0.00000
  augment   -11.80545   -11.53118   -12.28640    -0.00000    -0.00000     0.00000
  Kinetic   390.35029   383.47447   384.64113    -0.00000    -0.00000     0.00000
  Fock        0.00000     0.00000     0.00000     0.00000     0.00000     0.00000
  Total      -8.09873   -12.43066     1.59285    -0.00000     0.00000     0.00000
  in kB     -56.36022   -86.50677    11.08487    -0.00000     0.00000     0.00000

 VOLUME and BASIS-vectors are now :
  energy-cutoff  :      360.00
  volume of cell :      230.23
      direct lattice vectors                 reciprocal lattice vectors
     4.350000000  0.000000000  0.000000000     0.229885057  0.000000000  0.000000000
     0.000000000  4.750000000  0.000000000     0.000000000  0.210526316  0.000000000
     0.000000000  0.000000000 11.142221000     0.000000000  0.000000000  0.089748713

  length of vectors
     4.350000000  4.750000000 11.142221000     0.229885057  0.210526316  0.089748713

 FORCES acting on ions
    electron-ion (+dipol)            ewald-force                    non-local-force                 convergence-correction
   0.584E-07 -.721E-02 0.331E+02   0.149E-14 0.814E-02 -.356E+02   -.141E-07 -.114E-02 0.246E+01   -.241E-07 0.101E-06 0.195E-03
   -.159E-06 -.721E-02 -.331E+02   0.543E-14 0.814E-02 0.356E+02   0.749E-07 -.114E-02 -.246E+01   0.859E-07 0.416E-06 -.196E-03
   -.293E-07 0.721E-02 -.331E+02   -.472E-14 -.814E-02 0.356E+02   0.211E-07 0.115E-02 -.246E+01   -.455E-08 0.812E-07 -.195E-03
   -.104E-07 0.721E-02 0.331E+02   -.785E-14 -.814E-02 -.356E+02   0.144E-07 0.114E-02 0.246E+01   -.141E-07 -.581E-06 0.196E-03
   0.695E-06 0.358E-02 -.345E+02   -.290E-14 -.358E-02 0.366E+02   -.342E-06 0.470E-03 -.210E+01   -.263E-06 -.565E-06 -.430E-03
   -.111E-06 0.358E-02 0.345E+02   -.942E-15 -.358E-02 -.366E+02   0.255E-07 0.470E-03 0.210E+01   0.898E-07 0.909E-08 0.427E-03
   -.146E-06 -.358E-02 0.345E+02   0.963E-14 0.358E-02 -.366E+02   0.681E-07 -.469E-03 0.210E+01   0.446E-07 0.122E-05 0.431E-03
   -.145E-07 -.358E-02 -.345E+02   0.939E-14 0.358E-02 0.366E+02   0.166E-08 -.470E-03 -.210E+01   0.173E-09 -.362E-06 -.428E-03
   0.282E-06 -.742E-06 -.318E-06   0.954E-14 -.623E-15 -.142E-13   -.151E-06 0.373E-06 0.510E-06   -.853E-07 0.315E-06 -.457E-06

 POSITION                                       TOTAL-FORCE (eV/Angst)
      1.08750      4.74873      1.62156         0.000000     -0.000216      0.005123
      3.26250      2.37373      3.94955        -0.000000     -0.000216     -0.005123
      3.26250      0.00127      9.52066        -0.000000      0.000216     -0.005123
      1.08750      2.37627      7.19267        -0.000000      0.000216      0.005123
      1.08750      4.74882      4.04985         0.000000      0.000470      0.028497
      3.26250      2.37382      1.52126        -0.000000      0.000470     -0.028497
      3.26250      0.00118      7.09237        -0.000000     -0.000471     -0.028497
      1.08750      2.37618      9.62096        -0.000000     -0.000470      0.028497
    total drift:                                0.000000     -0.000000     -0.000000

  FREE ENERGIE OF THE ION-ELECTRON SYSTEM (eV)
  free  energy   TOTEN  =       -31.98034451 eV

  energy  without entropy=      -31.98034451  energy(sigma->0) =      -31.98034451