 vasp.6.4.2 20Jul23 (build Oct 12 2023 10:31:02) complex
 executed on              LinuxNV date 2024.11.01  20:41:47

 INCAR:
   ENCUT = 520.000000
   SIGMA = 0.050000
   EDIFF = 1.00e-06
   ALGO = N
   GGA = PE
   PREC = Accurate
   SYSTEM = 01_AOPT
   ICHARG = 0
   ISMEAR = 0
   ISPIN = 2
   ISTART = 1
   ISYM = -1
   KPAR = 2
   LORBIT = 11
   NBANDS = 220
   NELM = 100
   NELMIN = 5
   NPAR = 8
   LASPH = .TRUE.
   LCHARG = .FALSE.
   LWAVE = .FALSE.
   LREAL = .FALSE.

 POTCAR:    PAW_PBE Ge 05Jan2001
 POTCAR:    PAW_PBE Se 06Sep2000
|           W    W    AA    RRRRR   N    N  II  N    N   GGGG   !!!           |
|           W    W   A  A   R    R  NN   N  II  NN   N  G    G  !!!           |
|           W    W  A    A  R    R  N N  N  II  N N  N  G       !!!           |
|           W WW W  AAAAAA  RRRRR   N  N N  II  N  N N  G  GGG   !            |
|           WW  WW  A    A  R   R   N   NN  II  N   NN  G    G                |
|           W    W  A    A  R    R  N    N  II  N    N   GGGG   !!!           |
|     You use a magnetic or noncollinear calculation, but did not specify     |
|     the initial magnetic moment with the MAGMOM tag. Note that a            |
|     default of 1 will be used for all atoms. This ferromagnetic setup       |
|     may break the symmetry of the crystal, in particular it may rule        |
|     out finding an antiferromagnetic solution. Thence, we recommend         |
|     setting the initial magnetic moment manually or verifying carefully     |
|     that this magnetic setup is desired.                                    |

 POTCAR:    PAW_PBE Ge 05Jan2001
   VRHFIN =Ge: s2p2

   TITEL  = PAW_PBE Ge 05Jan2001
   POMASS =   72.610; ZVAL   =    4.000    mass and valenz
   ENMAX  =  173.807; ENMIN  =  130.355 eV

 POTCAR:    PAW_PBE Se 06Sep2000
   VRHFIN =Se: s2p4

   TITEL  = PAW_PBE Se 06Sep2000
   POMASS =   78.960; ZVAL   =    6.000    mass and valenz
   ENMAX  =  211.555; ENMIN  =  158.666 eV

  PAW_PBE Ge 05Jan2001                  :
  PAW_PBE Se 06Sep2000                  :

 POSCAR: Ge Se
  positions in cartesian coordinates
 exchange correlation table for  LEXCH =        8
   RHO(1)=    0.500       N(1)  =     2000
   RHO(2)=  100.500       N(2)  =     4000

 ion  position               nearest neighbor table
   1  0.081  0.011  0.130-  67 2.63  45 2.66  54 2.73
   2  0.270  0.856  0.371-  67 2.52  48 2.65  50 2.72
   3  0.563  0.243  0.367-  49 2.56  56 2.59  68 2.70
   4  0.603  0.538  0.385-  72 2.50  56 2.71  69 2.78
   5  0.575  0.880  0.381-  44 2.49  70 2.59  48 2.66
   6  0.935  0.200  0.379-  46 2.53  55 2.61  45 2.76
   7  0.917  0.533  0.359-  71 2.52  47 2.75  72 2.81
   8  0.911  0.880  0.373-  45 2.55  53 2.63  44 2.63
   9  0.050  0.139  0.645-  57 2.39  37 2.76  51 2.76
  10  0.076  0.490  0.624-  43 2.62  58 2.62  38 2.66
  11  0.086  0.853  0.644-  51 2.55  59 2.60  39 2.68
  12  0.424  0.182  0.633-  41 2.48  60 2.65  40 2.69
  13  0.392  0.473  0.605-  61 2.66  38 2.72  41 2.73
  14  0.402  0.820  0.628-  39 2.54  62 2.63  42 2.66
  15  0.740  0.156  0.628-  40 2.57  63 2.60  37 2.71
  16  0.760  0.523  0.631-  64 2.50  52 2.55  43 2.72
  17  0.229  0.549  0.386-  50 2.59  66 2.60  47 2.82
  18  0.252  0.192  0.359-  54 2.58  49 2.58  46 2.76
  19  0.712  0.810  0.634-  65 2.49  42 2.62  52 2.79
  20  0.924  0.651  0.869-  58 2.52  52 2.57  59 2.76
  21  0.879  0.973  0.880-  37 2.50  65 2.55  59 2.85
  22  0.062  0.371  0.114-  46 2.48  66 2.58  71 2.63
  23  0.073  0.709  0.120-  67 2.66  47 2.68
  24  0.408  0.035  0.128-  48 2.55  54 2.63  68 2.65
  25  0.395  0.378  0.100-  49 2.64  69 2.70  66 2.79
  26  0.731  0.043  0.140-  55 2.57  68 2.61  44 2.67
  27  0.745  0.354  0.135-  56 2.58  71 2.69  55 2.77
  28  0.418  0.684  0.126-  50 2.50  70 2.59  69 2.68
  29  0.243  0.313  0.881-  38 2.61  60 2.65
  30  0.228  0.663  0.846-  39 2.51  58 2.52  61 2.74
  31  0.261  0.992  0.863-  51 2.47  62 2.56
  32  0.582  0.345  0.857-  41 2.59  64 2.61  63 2.77
  33  0.544  0.631  0.870-  42 2.44  61 2.56  64 2.69
  34  0.563  0.981  0.879-  62 2.43  40 2.60  65 2.65
  35  0.920  0.302  0.874-  57 2.48  63 2.59  43 2.73
  36  0.739  0.702  0.122-  53 2.55  70 2.73  72 2.80
  37  0.883  0.994  0.655-  21 2.50  15 2.71   9 2.76
  38  0.224  0.338  0.648-  29 2.61  10 2.66  13 2.72
  39  0.236  0.701  0.623-  30 2.51  14 2.54  11 2.68
  40  0.578  0.031  0.651-  15 2.57  34 2.60  12 2.69
  41  0.556  0.329  0.625-  12 2.48  32 2.59  13 2.73
  42  0.555  0.672  0.654-  33 2.44  19 2.62  14 2.66
  43  0.909  0.364  0.638-  10 2.62  16 2.72  35 2.73
  44  0.736  0.998  0.375-   5 2.49   8 2.63  26 2.67
  45  0.061  0.019  0.369-   8 2.55   1 2.66   6 2.76
  46  0.083  0.332  0.332-  22 2.48   6 2.53  18 2.76
  47  0.061  0.699  0.362-  23 2.68   7 2.75  17 2.82
  48  0.410  0.015  0.358-  24 2.55   2 2.65   5 2.66
  49  0.387  0.347  0.336-   3 2.56  18 2.58  25 2.64
  50  0.391  0.676  0.350-  28 2.50  17 2.59   2 2.72
  51  0.225  0.003  0.644-  31 2.47  11 2.55   9 2.76
  52  0.893  0.677  0.641-  16 2.55  20 2.57  19 2.79
  53  0.886  0.842  0.141-  36 2.55   8 2.63
  54  0.239  0.162  0.130-  18 2.58  24 2.63   1 2.73
  55  0.883  0.181  0.151-  26 2.57   6 2.61  27 2.77
  56  0.732  0.364  0.367-  27 2.58   3 2.59   4 2.71
  57  0.053  0.156  0.861-   9 2.39  35 2.48
  58  0.081  0.525  0.857-  30 2.52  20 2.52  10 2.62
  59  0.056  0.829  0.874-  11 2.60  20 2.76  21 2.85
  60  0.405  0.175  0.872-  29 2.65  12 2.65
  61  0.383  0.506  0.843-  33 2.56  13 2.66  30 2.74
  62  0.415  0.855  0.862-  34 2.43  31 2.56  14 2.63
  63  0.743  0.193  0.859-  35 2.59  15 2.60  32 2.77
  64  0.718  0.504  0.852-  16 2.50  32 2.61  33 2.69
  65  0.723  0.843  0.855-  19 2.49  21 2.55  34 2.65
  66  0.216  0.503  0.157-  22 2.58  17 2.60  25 2.79
  67  0.224  0.858  0.149-   2 2.52   1 2.63  23 2.66
  68  0.568  0.175  0.136-  26 2.61  24 2.65   3 2.70
  69  0.555  0.519  0.141-  28 2.68  25 2.70   4 2.78
  70  0.564  0.830  0.155-   5 2.59  28 2.59  36 2.73
  71  0.900  0.505  0.135-   7 2.52  22 2.63  27 2.69
  72  0.745  0.679  0.374-   4 2.50  36 2.80   7 2.81

IMPORTANT INFORMATION: All symmetrisations will be switched off!
NOSYMM: (Re-)initialisation of all symmetry stuff for point group C_1.

                                     Primitive cell

  volume of cell :    1722.3733

  direct lattice vectors                    reciprocal lattice vectors
    12.438138270 -0.000002382  0.000000984     0.080397884  0.000000015 -0.000000008
    -0.000002396 12.510863341 -0.000000281     0.000000015  0.079930535  0.000000002
     0.000001127 -0.000000321 11.068394277    -0.000000007  0.000000002  0.090347342

  length of vectors
    12.438138270 12.510863341 11.068394277     0.080397884  0.079930535  0.090347342

  position of ions in fractional coordinates (direct lattice)
     0.080531407  0.011338285  0.130234985
     0.269828869  0.855920557  0.371384273
     0.562916371  0.243442723  0.367091608
     0.603405652  0.538225983  0.385409720
     0.574785421  0.880418295  0.380769495
     0.934679521  0.200009646  0.378616288
     0.916758812  0.532818360  0.358984004
     0.911353732  0.879731083  0.372813507
     0.049910773  0.139112597  0.645045190
     0.076278792  0.490319952  0.623594745
     0.086069297  0.852600866  0.643545053
     0.423616051  0.181569460  0.632806343
     0.391521083  0.472677889  0.605418843
     0.402067057  0.819556310  0.627774522
     0.740476791  0.156168651  0.628279453
     0.759648484  0.523021175  0.631358062
     0.229198188  0.549372477  0.385555077
     0.252449876  0.192108497  0.359477767
     0.712327784  0.809690232  0.634298154
     0.924047735  0.651298627  0.869295341
     0.878902090  0.972799554  0.879798296
     0.062263433  0.370765817  0.113842523
     0.073029638  0.708841353  0.120451399
     0.408120421  0.035271880  0.128493919
     0.394640670  0.378280643  0.099993987
     0.731130864  0.043085023  0.139745737
     0.745116742  0.354346534  0.134685638
     0.418232707  0.684079555  0.125963730
     0.243226691  0.313116287  0.880738730
     0.228208730  0.662678201  0.845545389
     0.261251017  0.991647821  0.863085462
     0.581664559  0.344964361  0.857290705
     0.544254384  0.630903171  0.869911213
     0.562816481  0.981305720  0.878736259
     0.920018349  0.302449995  0.874304599
     0.739331747  0.701540998  0.121899958
     0.883103165  0.993772015  0.655224196
     0.223833566  0.338312298  0.648044319
     0.236485364  0.700742952  0.622916887
     0.577642673  0.031074215  0.651458608
     0.556414442  0.329204269  0.625333938
     0.554736097  0.671957980  0.654289889
     0.909205706  0.363977179  0.637701177
     0.736456788  0.998241463  0.375211088
     0.060904850  0.018981106  0.369239144
     0.083246816  0.332314612  0.332307314
     0.061280656  0.698879466  0.361756129
     0.410498488  0.014663604  0.357610383
     0.387441305  0.347206460  0.335957356
     0.391256272  0.676048333  0.349862822
     0.224527377  0.002593857  0.643811035
     0.892925075  0.677256146  0.641415356
     0.886204450  0.842261699  0.140830652
     0.239424270  0.162090425  0.129766685
     0.883367909  0.181124539  0.150710307
     0.732347002  0.364393755  0.366790322
     0.053020385  0.155558039  0.860523655
     0.081430218  0.524658669  0.856970010
     0.055635198  0.828521472  0.874338593
     0.404891424  0.175391925  0.871526229
     0.382861006  0.506322645  0.842856633
     0.414919707  0.855224040  0.861560991
     0.743403467  0.193197913  0.859350322
     0.718133538  0.503693127  0.851595813
     0.722579910  0.843290075  0.855407153
     0.216261850  0.503368414  0.156542042
     0.223759627  0.857866284  0.149488746
     0.568273864  0.174996737  0.136248525
     0.555151210  0.518897661  0.140712293
     0.564249225  0.829916230  0.154544149
     0.899873861  0.504537467  0.134744910
     0.745430856  0.678680260  0.373545693

  ion indices of the primitive-cell ions
   primitive index   ion index
                 1           1
                 2           2
                 3           3
                 4           4
                 5           5
                 6           6
                 7           7
                 8           8
                 9           9
                10          10
                11          11
                12          12
                13          13
                14          14
                15          15
                16          16
                17          17
                18          18
                19          19
                20          20
                21          21
                22          22
                23          23
                24          24
                25          25
                26          26
                27          27
                28          28
                29          29
                30          30
                31          31
                32          32
                33          33
                34          34
                35          35
                36          36
                37          37
                38          38
[...]
   0.254E+00 -.737E+01 0.262E+02   -.113E-01 0.925E+01 -.292E+02   0.144E+00 -.180E+01 0.259E+01   -.128E-03 -.319E-05 -.177E-03
   0.194E+02 0.366E+01 -.247E+02   -.217E+02 -.301E+01 0.275E+02   0.217E+01 0.588E-02 -.280E+01   0.185E-03 -.343E-03 -.246E-03
   -.585E+01 -.127E+02 -.307E+02   0.648E+01 0.147E+02 0.335E+02   -.250E+00 -.192E+01 -.248E+01   -.837E-04 0.335E-03 -.205E-03
   0.356E+01 0.147E+02 0.308E+02   -.335E+01 -.168E+02 -.338E+02   -.115E+00 0.205E+01 0.269E+01   -.257E-03 -.283E-04 0.590E-04
   -.134E+01 0.137E+02 0.159E+02   0.940E+00 -.154E+02 -.178E+02   0.265E+00 0.197E+01 0.268E+01   0.335E-03 -.183E-03 0.128E-03
   -.499E+01 0.128E+02 0.182E+02   0.532E+01 -.151E+02 -.210E+02   -.163E+00 0.231E+01 0.273E+01   0.263E-03 -.246E-03 0.107E-03
   -.412E+01 0.664E+01 0.193E+02   0.398E+01 -.821E+01 -.213E+02   0.186E+00 0.194E+01 0.267E+01   -.452E-04 0.741E-04 -.933E-04
   0.196E+01 0.108E+02 0.168E+02   -.211E+01 -.133E+02 -.194E+02   0.161E+00 0.227E+01 0.284E+01   -.810E-04 0.256E-03 0.142E-03
   0.983E+01 -.124E+01 0.230E+02   -.114E+02 0.111E+01 -.255E+02   0.178E+01 0.938E-01 0.270E+01   0.292E-03 -.177E-03 0.352E-04
   0.175E+02 0.734E-01 0.298E+02   -.196E+02 -.189E+00 -.328E+02   0.223E+01 0.626E-01 0.281E+01   -.103E-03 0.218E-03 -.221E-04
   0.139E+02 -.235E+01 -.166E+02   -.149E+02 0.352E+01 0.190E+02   0.995E+00 -.156E+01 -.263E+01   -.150E-03 -.268E-05 -.120E-03
   -.121E+02 -.988E+01 -.300E+02   0.133E+02 0.122E+02 0.330E+02   -.836E+00 -.211E+01 -.251E+01   0.127E-03 -.532E-04 -.187E-03
   0.119E+02 -.471E+01 -.227E+02   -.139E+02 0.558E+01 0.258E+02   0.202E+01 -.394E+00 -.263E+01   0.379E-03 -.233E-03 -.232E-03
   0.411E+01 0.261E+01 -.245E+02   -.579E+01 -.271E+01 0.269E+02   0.203E+01 -.276E+00 -.239E+01   0.296E-04 -.967E-04 -.439E-04
   -.475E+01 -.994E+01 -.305E+02   0.500E+01 0.125E+02 0.339E+02   0.253E+00 -.239E+01 -.253E+01   -.224E-03 0.171E-03 -.191E-04
   -.966E+01 -.157E+02 -.256E+02   0.104E+02 0.184E+02 0.287E+02   0.168E+00 -.193E+01 -.299E+01   -.288E-03 -.181E-03 0.746E-04
   -.143E+01 -.215E+02 -.151E+02   0.148E+01 0.248E+02 0.178E+02   -.552E+00 -.258E+01 -.286E+01   0.227E-03 -.172E-03 -.635E-04
   0.324E+01 0.166E+02 0.217E+02   -.355E+01 -.187E+02 -.235E+02   0.420E-01 0.224E+01 0.250E+01   -.263E-03 -.918E-04 -.125E-04
   -.375E+01 0.571E+00 0.311E+02   0.361E+01 -.156E+01 -.329E+02   0.441E+00 0.149E+01 0.134E+01   0.165E-03 0.270E-03 -.210E-03
   0.104E+02 0.213E+02 0.284E+02   -.108E+02 -.227E+02 -.299E+02   0.560E+00 0.153E+01 0.138E+01   -.447E-03 -.129E-04 -.218E-03
   0.597E+01 0.183E+02 0.224E+02   -.642E+01 -.194E+02 -.243E+02   0.290E+00 0.763E+00 0.197E+01   0.649E-04 0.162E-04 -.146E-03
   0.111E+02 0.923E+01 0.300E+02   -.115E+02 -.106E+02 -.318E+02   0.369E-01 0.115E+01 0.170E+01   -.338E-03 -.314E-03 -.130E-03
   -.211E+02 -.138E+02 0.221E+02   0.225E+02 0.146E+02 -.236E+02   -.138E+01 0.846E-01 0.173E+01   0.205E-04 -.167E-03 -.163E-03
   0.436E+01 0.118E+02 0.338E+02   -.456E+01 -.129E+02 -.358E+02   -.323E-01 0.120E+01 0.111E+01   -.240E-03 0.252E-03 -.620E-04
   0.309E+01 0.188E+02 0.225E+02   -.354E+01 -.200E+02 -.243E+02   0.584E+00 0.116E+01 0.205E+01   0.293E-03 -.103E-03 0.503E-04
   0.324E-01 -.277E+02 -.165E+02   0.144E+00 0.295E+02 0.180E+02   -.262E+00 -.102E+01 -.205E+01   -.283E-03 0.148E-03 -.376E-04
   -.136E+02 -.921E+01 -.223E+02   0.148E+02 0.916E+01 0.238E+02   -.122E+01 0.314E+00 -.196E+01   -.265E-03 0.221E-03 0.507E-03
   0.683E+00 -.630E+01 -.382E+02   -.528E-01 0.757E+01 0.400E+02   -.788E+00 -.134E+01 -.955E+00   -.501E-03 0.583E-05 0.259E-03
   0.175E+01 -.130E+01 -.215E+02   -.186E+01 0.192E+01 0.229E+02   0.281E+00 -.158E+01 -.188E+01   0.227E-03 -.334E-03 0.460E-03
   -.409E+01 -.162E+02 -.354E+02   0.417E+01 0.170E+02 0.372E+02   -.177E+00 -.972E+00 -.182E+01   0.197E-03 -.394E-03 0.253E-03
   -.749E+00 -.145E+02 -.229E+02   0.512E+00 0.161E+02 0.237E+02   0.409E+00 -.136E+01 -.920E+00   0.367E-04 -.276E-04 0.232E-03
   -.187E+02 0.622E+01 -.226E+02   0.201E+02 -.629E+01 0.243E+02   -.160E+01 0.300E+00 -.134E+01   -.128E-03 0.206E-03 0.610E-04
   -.182E+02 -.251E+02 0.335E+02   0.195E+02 0.259E+02 -.357E+02   -.125E+01 -.474E+00 0.185E+01   0.232E-03 -.266E-04 -.328E-03
   -.195E+02 -.899E+01 0.229E+02   0.207E+02 0.986E+01 -.247E+02   -.133E+01 -.775E+00 0.201E+01   0.119E-03 -.214E-03 -.163E-03
   0.249E+00 -.979E+01 0.199E+02   0.332E-01 0.109E+02 -.216E+02   0.292E+00 -.971E+00 0.166E+01   -.128E-03 0.332E-03 0.249E-03
   0.144E+02 -.122E+02 0.235E+02   -.147E+02 0.133E+02 -.251E+02   0.150E+00 -.119E+01 0.181E+01   0.136E-03 0.257E-04 -.508E-04
   -.120E+02 0.311E+01 0.174E+02   0.133E+02 -.312E+01 -.189E+02   -.120E+01 0.310E+00 0.160E+01   -.373E-04 0.865E-04 0.164E-03
   -.171E+02 0.125E+02 -.257E+02   0.181E+02 -.130E+02 0.275E+02   -.123E+01 0.509E+00 -.213E+01   0.138E-03 -.354E-03 0.105E-03
   -.145E+02 0.426E+01 -.325E+02   0.153E+02 -.530E+01 0.346E+02   -.222E+00 0.115E+01 -.136E+01   -.454E-03 0.562E-03 -.186E-03
   0.392E+01 0.273E+02 -.247E+02   -.381E+01 -.293E+02 0.261E+02   -.141E+00 0.144E+01 -.181E+01   -.252E-04 -.273E-03 -.208E-03
   -.860E+01 -.106E+02 -.230E+02   0.902E+01 0.113E+02 0.250E+02   -.624E+00 -.408E+00 -.218E+01   0.244E-03 -.223E-03 -.301E-03
   -.491E+01 -.537E+00 -.144E+02   0.583E+01 0.577E+00 0.159E+02   -.155E+01 0.186E-01 -.224E+01   0.313E-04 -.125E-03 -.611E-04
   0.691E+01 0.651E+01 -.228E+02   -.757E+01 -.720E+01 0.237E+02   0.576E+00 0.443E+00 -.115E+01   -.155E-03 0.426E-03 0.265E-03
   0.101E+02 0.225E+02 -.290E+02   -.107E+02 -.244E+02 0.308E+02   -.270E+00 0.104E+01 -.221E+01   -.462E-04 -.180E-03 0.118E-03
   0.624E+01 0.339E+01 -.244E+02   -.681E+01 -.457E+01 0.260E+02   0.337E+00 0.125E+01 -.180E+01   0.443E-03 -.533E-05 0.180E-03
   -.204E+02 0.226E+01 -.346E+02   0.214E+02 -.218E+01 0.368E+02   -.125E+01 0.101E+00 -.183E+01   0.967E-04 0.135E-03 0.349E-08
   0.186E+01 0.193E+02 -.350E+02   -.213E+01 -.209E+02 0.370E+02   -.614E-01 0.119E+01 -.131E+01   -.320E-03 0.188E-03 -.362E-04
   -.652E+01 -.174E+02 0.262E+02   0.671E+01 0.187E+02 -.275E+02   0.221E+00 -.874E+00 0.879E+00   -.184E-03 0.210E-03 -.421E-04
   -.147E+02 0.843E+01 0.301E+02   0.159E+02 -.871E+01 -.322E+02   -.125E+01 0.339E-01 0.162E+01   0.694E-03 -.303E-03 0.547E-04
   -.526E+01 -.125E+02 0.155E+02   0.513E+01 0.136E+02 -.171E+02   -.221E-01 -.580E+00 0.199E+01   0.224E-03 -.497E-03 0.121E-03
   -.165E+02 0.741E+01 0.141E+02   0.176E+02 -.763E+01 -.152E+02   -.127E+01 0.187E-01 0.127E+01   -.206E-03 0.414E-03 -.207E-03
   -.416E+01 -.104E+02 0.225E+02   0.432E+01 0.117E+02 -.243E+02   0.213E+00 -.126E+01 0.155E+01   -.546E-03 0.249E-03 0.604E-04
   0.926E+01 -.122E+02 0.303E+02   -.960E+01 0.133E+02 -.322E+02   0.373E+00 -.105E+01 0.177E+01   0.242E-03 -.455E-03 -.124E-03
   -.818E+00 -.134E+02 -.808E+01   0.131E+01 0.146E+02 0.895E+01   -.201E+00 -.153E+01 -.169E+01   -.157E-03 -.165E-04 0.337E-03
   -.134E+02 -.931E+00 0.277E+01   -.142E-12 -.409E-13 -.433E-12   0.134E+02 0.932E+00 -.277E+01   0.675E-04 -.446E-03 0.817E-03

 POSITION                                       TOTAL-FORCE (eV/Angst)
      1.00166      0.14185      1.44149         0.255981      0.255160      0.429644
      3.35617     10.70830      4.11063        -0.160897     -0.017802      0.176401
      7.00163      3.04568      4.06312         0.127431     -0.886375     -0.163852
      7.50524      6.73367      4.26587        -0.219357     -0.364697     -0.212756
      7.14926     11.01479      4.21451        -0.088089     -0.526434      0.142910
     11.62567      2.50229      4.19068        -0.148000     -0.328988     -0.083480
     11.40277      6.66602      3.97338        -0.046874      0.583308      0.313542
     11.33554     11.00619      4.12645        -0.283392     -0.492046     -0.028740
      0.62080      1.74042      7.13961        -0.010100     -0.236820     -0.823988
      0.94877      6.13433      6.90219        -0.170287     -0.307726      0.205201
      1.07054     10.66677      7.12301        -0.252281     -0.328284     -0.043268
      5.26900      2.27159      7.00415        -0.195544     -0.825560      0.414206
      4.86979      5.91361      6.70101        -0.118397     -0.244727      0.342251
      5.00096     10.25336      6.94846         0.436949      0.216781      0.085434
      9.21015      1.95380      6.95405         0.151091     -0.215102      0.209807
      9.44861      6.54344      6.98812         0.156804     -0.538066     -0.287136
      2.85080      6.87312      4.26748        -0.232723      0.225373     -0.199454
      3.14001      2.40344      3.97884        -0.265433      0.025269     -0.183800
      8.86003     10.12992      7.02066         0.386741      0.088576     -0.406885
     11.49343      8.14831      9.62170        -0.186545      0.659661     -0.039438
     10.93190     12.17056      9.73796         0.375253      0.061597      0.326006
      0.77444      4.63860      1.26005         0.096502     -0.042221     -0.362931
      0.90835      8.86822      1.33320        -0.130924      0.254461      0.788874
      5.07626      0.44128      1.42222         0.165724      0.017942     -0.060323
      4.90859      4.73262      1.10677         0.042035      0.370951      0.674580
      9.09391      0.53903      1.54676         0.007808     -0.206679      0.234573
      9.26786      4.43318      1.49075         0.220383     -0.037510      0.239643
      5.20203      8.55842      1.39422         0.213590     -0.052912     -0.191930
      3.02529      3.91735      9.74836        -0.009928     -0.394560     -0.226716
      2.83849      8.29068      9.35883         0.338992      0.205777      0.515984
      3.24947     12.40637      9.55297        -0.025004      0.473366      0.535219
      7.23482      4.31580      9.48883         0.341762     -0.378971      0.016421
      6.76951      7.89314      9.62852         0.496517      0.165178      0.825953
      7.00039     12.27698      9.72620         0.892091      0.795244      0.052540
     11.44332      3.78391      9.67715        -0.497613      0.645877     -0.204792
      9.19591      8.77688      1.34924        -0.273438      0.132847      0.643468
     10.98416     12.43294      7.25228         0.296882      0.505751     -0.556517
      2.78407      4.23258      7.17281         0.187210      0.076176     -0.143712
      2.94144      8.76690      6.89469        -0.163494     -0.387311      0.097137
      7.18480      0.38876      7.21060        -0.330580     -0.173422     -0.110134
      6.92076      4.11863      6.92144         0.092809      0.872027      0.216721
      6.89988      8.40677      7.24194        -0.226639      0.036233     -0.927669
     11.30883      4.55367      7.05833         0.127740     -0.007831      0.299213
      9.16015     12.48886      4.15298        -0.086409      0.778067     -0.567268
      0.75754      0.23747      4.08688        -0.004915      0.266587     -0.493575
      1.03543      4.15754      3.67811        -0.158571     -0.072553      0.784269
      0.76222      8.74359      4.00406         0.168491     -0.962009     -0.520968
      5.10584      0.18345      3.95817        -0.090107     -0.129335      0.037396
      4.81905      4.34385      3.71851         0.171537      0.259587     -0.134134
      4.86650      8.45795      3.87242        -0.185909      0.228639      0.338944
      2.79270      0.03245      7.12595        -0.035180      0.375312     -0.325720
     11.10632      8.47306      7.09944        -0.158943      0.095777      0.208308
     11.02273     10.53742      1.55877         0.573807      0.105683     -0.038252
      2.97799      2.02789      1.43631        -0.125462     -0.055169      0.249093
     10.98745      2.26602      1.66812         0.050759      0.298410      0.110981
      9.10903      4.55888      4.05978        -0.256322      0.050715     -0.339988
      0.65948      1.94616      9.52462         0.610770      0.114020      0.802892
      1.01284      6.56393      9.48528        -0.023005     -0.509746     -0.367441
      0.69200     10.36552      9.67752        -0.207806      0.272922     -0.186547
      5.03610      2.19430      9.64640        -0.623392      0.058002     -0.683673
      4.76208      6.33453      9.32907        -0.086907     -0.248669     -0.236530
      5.16083     10.69959      9.53610        -0.834194     -0.837215     -0.413237
      9.24656      2.41707      9.51163        -0.224983      0.066438     -0.143208
      8.93224      6.30163      9.42580        -0.219926      0.178894      0.355470
      8.98755     10.55028      9.46798        -0.337287     -0.397985      0.604948
      2.68989      6.29757      1.73267         0.405434      0.468036     -0.386110
      2.78315     10.73265      1.65460        -0.040200     -0.251520     -0.462445
      7.06827      2.18936      1.50805        -0.145352      0.475203      0.368237
      6.90505      6.49186      1.55746        -0.198007     -0.200206      0.108795
      7.01821     10.38297      1.71056         0.369763      0.069527     -0.228042
     11.19275      6.31220      1.49141         0.025276      0.068979     -0.150080
      9.27177      8.49087      4.13455         0.292280     -0.239897     -0.820321
    total drift:                                0.001850      0.000730     -0.000645

  FREE ENERGIE OF THE ION-ELECTRON SYSTEM (eV)
  free  energy   TOTEN  =      -300.65359271 eV

  energy  without entropy=     -300.65359271  energy(sigma->0) =     -300.65359271

 total charge

[...]

 magnetization (x)

# of ion       s       p       d       tot
    1       -0.000  -0.000  -0.000  -0.000
    2       -0.000   0.000   0.000   0.000
    3       -0.000   0.000   0.000   0.000
    4       -0.000   0.000   0.000   0.000
    5       -0.000   0.000  -0.000   0.000
    6       -0.000  -0.000  -0.000  -0.000
    7       -0.000   0.000   0.000   0.000
    8       -0.000  -0.000  -0.000  -0.000
    9       -0.000   0.000  -0.000  -0.000
   10       -0.000   0.000   0.000   0.000
   11       -0.000  -0.000  -0.000  -0.000
   12       -0.000   0.000   0.000   0.000
   13       -0.000   0.000   0.000   0.000
   14       -0.000   0.000   0.000   0.000
   15       -0.000   0.000  -0.000  -0.000
   16       -0.000   0.000   0.000   0.000
   17       -0.000   0.000   0.000   0.000
   18       -0.000   0.000   0.000   0.000
   19       -0.000  -0.000  -0.000  -0.000
   20       -0.000   0.000  -0.000   0.000
   21       -0.000  -0.000  -0.000  -0.000
   22       -0.000   0.000   0.000   0.000
   23       -0.000   0.000   0.000   0.000
   24       -0.000   0.000   0.000   0.000
   25       -0.000   0.000   0.000   0.000
   26       -0.000  -0.000  -0.000  -0.000
   27       -0.000   0.000  -0.000   0.000
   28       -0.000   0.000   0.000   0.000
   29       -0.000   0.000   0.000   0.000
   30       -0.000   0.000   0.000   0.000
   31       -0.000   0.000   0.000   0.000
   32       -0.000   0.000   0.000   0.000
   33       -0.000   0.000   0.000   0.000
   34       -0.000   0.000  -0.000  -0.000
   35       -0.000   0.000  -0.000   0.000
   36       -0.000   0.000  -0.000   0.000
   37       -0.000  -0.000  -0.000  -0.000
   38       -0.000  -0.000   0.000  -0.000
   39       -0.000  -0.000   0.000  -0.000
   40       -0.000  -0.000  -0.000  -0.000
   41       -0.000  -0.000   0.000  -0.000
   42       -0.000  -0.000   0.000  -0.000
   43       -0.000  -0.000   0.000  -0.000
   44       -0.000  -0.000  -0.000  -0.000
   45       -0.000  -0.000  -0.000  -0.000
   46       -0.000  -0.000   0.000  -0.000
   47       -0.000  -0.000   0.000  -0.000
   48       -0.000  -0.000   0.000  -0.000
   49       -0.000  -0.000   0.000  -0.000
   50       -0.000  -0.000   0.000  -0.000
   51       -0.000  -0.000   0.000  -0.000
   52       -0.000  -0.000   0.000  -0.000
   53       -0.000  -0.000  -0.000  -0.000
   54       -0.000  -0.000   0.000  -0.000
   55       -0.000  -0.000  -0.000  -0.000
   56       -0.000  -0.000   0.000  -0.000
   57       -0.000  -0.000  -0.000  -0.000
   58       -0.000  -0.000   0.000  -0.000
   59       -0.000  -0.000  -0.000  -0.000
   60       -0.000  -0.000   0.000  -0.000
   61       -0.000  -0.000   0.000  -0.000
   62       -0.000  -0.000   0.000  -0.000
   63       -0.000  -0.000  -0.000  -0.000
   64       -0.000  -0.000   0.000  -0.000
   65       -0.000  -0.000  -0.000  -0.000
   66       -0.000  -0.000   0.000  -0.000
   67       -0.000  -0.000   0.000  -0.000
   68       -0.000  -0.000   0.000  -0.000
   69       -0.000  -0.000   0.000  -0.000
   70       -0.000  -0.000  -0.000  -0.000
   71       -0.000  -0.000   0.000  -0.000
   72       -0.000  -0.000   0.000  -0.000
tot         -0.000  -0.000   0.000  -0.000