 vasp.6.4.2 20Jul23 (build Oct 12 2023 10:31:02) complex
 executed on              LinuxNV date 2024.11.26  15:40:38

 INCAR:
   ENCUT = 520.000000
   SIGMA = 0.050000
   EDIFF = 1.00e-06
   ALGO = N
   GGA = PE
   PREC = Accurate
   SYSTEM = SCF
   ICHARG = 0
   ISMEAR = 0
   ISPIN = 2
   ISTART = 1
   LORBIT = 11
   NBANDS = 1728
   NELM = 100
   NELMIN = 5
   LASPH = .TRUE.
   LCHARG = .TRUE.
   LWAVE = .TRUE.
   LREAL = .FALSE.

 POTCAR:    PAW_PBE Ge 05Jan2001
 POTCAR:    PAW_PBE Se 06Sep2000
|           W    W    AA    RRRRR   N    N  II  N    N   GGGG   !!!           |
|           W    W   A  A   R    R  NN   N  II  NN   N  G    G  !!!           |
|           W    W  A    A  R    R  N N  N  II  N N  N  G       !!!           |
|           W WW W  AAAAAA  RRRRR   N  N N  II  N  N N  G  GGG   !            |
|           WW  WW  A    A  R   R   N   NN  II  N   NN  G    G                |
|           W    W  A    A  R    R  N    N  II  N    N   GGGG   !!!           |
|     You use a magnetic or noncollinear calculation, but did not specify     |
|     the initial magnetic moment with the MAGMOM tag. Note that a            |
|     default of 1 will be used for all atoms. This ferromagnetic setup       |
|     may break the symmetry of the crystal, in particular it may rule        |
|     out finding an antiferromagnetic solution. Thence, we recommend         |
|     setting the initial magnetic moment manually or verifying carefully     |
|     that this magnetic setup is desired.                                    |

 POTCAR:    PAW_PBE Ge 05Jan2001
   VRHFIN =Ge: s2p2

   TITEL  = PAW_PBE Ge 05Jan2001
   POMASS =   72.610; ZVAL   =    4.000    mass and valenz
   ENMAX  =  173.807; ENMIN  =  130.355 eV

 POTCAR:    PAW_PBE Se 06Sep2000
   VRHFIN =Se: s2p4

   TITEL  = PAW_PBE Se 06Sep2000
   POMASS =   78.960; ZVAL   =    6.000    mass and valenz
   ENMAX  =  211.555; ENMIN  =  158.666 eV

  PAW_PBE Ge 05Jan2001                  :
  PAW_PBE Se 06Sep2000                  :

 POSCAR: Ge Se
  positions in cartesian coordinates
 exchange correlation table for  LEXCH =        8
   RHO(1)=    0.500       N(1)  =     2000
   RHO(2)=  100.500       N(2)  =     4000

 ion  position               nearest neighbor table
   1  0.042  0.020  0.063- 535 2.59 361 2.61 366 2.61
   2  0.208  0.020  0.063- 536 2.59 362 2.61 361 2.61
   3  0.375  0.020  0.063- 537 2.59 363 2.61 362 2.61
   4  0.542  0.020  0.063- 538 2.59 364 2.61 363 2.61
   5  0.708  0.020  0.063- 539 2.59 365 2.61 364 2.61
   6  0.875  0.020  0.063- 540 2.59 366 2.61 365 2.61
   7  0.042  0.186  0.063- 505 2.59 367 2.61 372 2.61
   8  0.208  0.186  0.063- 506 2.59 368 2.61 367 2.61
   9  0.375  0.186  0.063- 507 2.59 369 2.61 368 2.61
  10  0.542  0.186  0.063- 508 2.59 370 2.61 369 2.61
  11  0.708  0.186  0.063- 509 2.59 371 2.61 370 2.61
  12  0.875  0.186  0.063- 510 2.59 372 2.61 371 2.61
  13  0.042  0.353  0.063- 511 2.59 373 2.61 378 2.61
  14  0.208  0.353  0.063- 512 2.59 374 2.61 373 2.61
  15  0.375  0.353  0.063- 513 2.59 375 2.61 374 2.61
  16  0.542  0.353  0.063- 514 2.59 376 2.61 375 2.61
  17  0.708  0.353  0.063- 515 2.59 377 2.61 376 2.61
  18  0.875  0.353  0.063- 516 2.59 378 2.61 377 2.61
  19  0.042  0.520  0.063- 517 2.59 379 2.61 384 2.61
  20  0.208  0.520  0.063- 518 2.59 380 2.61 379 2.61
  21  0.375  0.520  0.063- 519 2.59 381 2.61 380 2.61
  22  0.542  0.520  0.063- 520 2.59 382 2.61 381 2.61
  23  0.708  0.520  0.063- 521 2.59 383 2.61 382 2.61
  24  0.875  0.520  0.063- 522 2.59 384 2.61 383 2.61
  25  0.042  0.686  0.063- 523 2.59 385 2.61 390 2.61
  26  0.208  0.686  0.063- 524 2.59 386 2.61 385 2.61
  27  0.375  0.686  0.063- 525 2.59 387 2.61 386 2.61
  28  0.542  0.686  0.063- 526 2.59 388 2.61 387 2.61
  29  0.708  0.686  0.063- 527 2.59 389 2.61 388 2.61
  30  0.875  0.686  0.063- 528 2.59 390 2.61 389 2.61
  31  0.042  0.853  0.063- 529 2.59 391 2.61 396 2.61
  32  0.208  0.853  0.063- 530 2.59 392 2.61 391 2.61
  33  0.375  0.853  0.063- 531 2.59 393 2.61 392 2.61
  34  0.542  0.853  0.063- 532 2.59 394 2.61 393 2.61
  35  0.708  0.853  0.063- 533 2.59 395 2.61 394 2.61
  36  0.875  0.853  0.063- 534 2.59 396 2.61 395 2.61
  37  0.042  0.020  0.563- 571 2.59 397 2.61 402 2.61
  38  0.208  0.020  0.563- 572 2.59 398 2.61 397 2.61
  39  0.375  0.020  0.563- 573 2.59 399 2.61 398 2.61
  40  0.542  0.020  0.563- 574 2.59 400 2.61 399 2.61
  41  0.708  0.020  0.563- 575 2.59 401 2.61 400 2.61
  42  0.875  0.020  0.563- 576 2.59 402 2.61 401 2.61
  43  0.042  0.186  0.563- 541 2.59 403 2.61 408 2.61
  44  0.208  0.186  0.563- 542 2.59 404 2.61 403 2.61
  45  0.375  0.186  0.563- 543 2.59 405 2.61 404 2.61
  46  0.542  0.186  0.563- 544 2.59 406 2.61 405 2.61
  47  0.708  0.186  0.563- 545 2.59 407 2.61 406 2.61
  48  0.875  0.186  0.563- 546 2.59 408 2.61 407 2.61
  49  0.042  0.353  0.563- 547 2.59 409 2.61 414 2.61
  50  0.208  0.353  0.563- 548 2.59 410 2.61 409 2.61
  51  0.375  0.353  0.563- 549 2.59 411 2.61 410 2.61
  52  0.542  0.353  0.563- 550 2.59 412 2.61 411 2.61
  53  0.708  0.353  0.563- 551 2.59 413 2.61 412 2.61
  54  0.875  0.353  0.563- 552 2.59 414 2.61 413 2.61
  55  0.042  0.520  0.563- 553 2.59 415 2.61 420 2.61
  56  0.208  0.520  0.563- 554 2.59 416 2.61 415 2.61
  57  0.375  0.520  0.563- 555 2.59 417 2.61 416 2.61
  58  0.542  0.520  0.563- 556 2.59 418 2.61 417 2.61
  59  0.708  0.520  0.563- 557 2.59 419 2.61 418 2.61
  60  0.875  0.520  0.563- 558 2.59 420 2.61 419 2.61
[...]
 562  0.542  0.666  0.676-  64 2.59 202 2.61 201 2.61
 563  0.708  0.666  0.676-  65 2.59 203 2.61 202 2.61
 564  0.875  0.666  0.676-  66 2.59 204 2.61 203 2.61
 565  0.042  0.833  0.676-  67 2.59 205 2.61 210 2.61
 566  0.208  0.833  0.676-  68 2.59 206 2.61 205 2.61
 567  0.375  0.833  0.676-  69 2.59 207 2.61 206 2.61
 568  0.542  0.833  0.676-  70 2.59 208 2.61 207 2.61
 569  0.708  0.833  0.676-  71 2.59 209 2.61 208 2.61
 570  0.875  0.833  0.676-  72 2.59 210 2.61 209 2.61
 571  0.042  0.999  0.676-  37 2.59 211 2.61 216 2.61
 572  0.208  0.999  0.676-  38 2.59 212 2.61 211 2.61
 573  0.375  0.999  0.676-  39 2.59 213 2.61 212 2.61
 574  0.542  0.999  0.676-  40 2.59 214 2.61 213 2.61
 575  0.708  0.999  0.676-  41 2.59 215 2.61 214 2.61
 576  0.875  0.999  0.676-  42 2.59 216 2.61 215 2.61

  LATTYP: Found a simple orthorhombic cell.
 ALAT       =    22.3190494963
 B/A-ratio  =     1.0441241067
 C/A-ratio  =     1.2250346344

  Lattice vectors:

 A1 = (   0.0000000000,   0.0000000000,  22.3190494963)
 A2 = (  23.3038576169,   0.0000000000,   0.0000000000)
 A3 = (   0.0000000000,  27.3416086400,   0.0000000000)

Analysis of symmetry for initial positions (statically):
 Subroutine PRICEL returns:
 Original cell was already a primitive cell.

 Routine SETGRP: Setting up the symmetry group for a
 simple orthorhombic supercell.

 Subroutine GETGRP returns: Found  1 space group operations
 (whereof  1 operations were pure point group operations)
 out of a pool of  8 trial point group operations.

The static configuration has the point symmetry C_1 .

Analysis of symmetry for dynamics (positions and initial velocities):
 Subroutine PRICEL returns:
 Original cell was already a primitive cell.

[...]

The dynamic configuration has the point symmetry C_1 .

Analysis of structural, dynamic, and magnetic symmetry:
 Subroutine PRICEL returns:
 Original cell was already a primitive cell.

 Routine SETGRP: Setting up the symmetry group for a
 simple orthorhombic supercell.

 Subroutine GETGRP returns: Found  1 space group operations
 (whereof  1 operations were pure point group operations)
 out of a pool of  8 trial point group operations.

The overall configuration has the point symmetry C_1 .

 Subroutine INISYM returns: Found  1 space group operations
 (whereof  1 operations are pure point group operations),
 and found     1 'primitive' translations

                                     Primitive cell

  volume of cell :   14220.9162

  direct lattice vectors                    reciprocal lattice vectors
    23.303857617  0.000000000  0.000000000     0.042911350  0.000000000  0.000000000
     0.000000000 27.341608640  0.000000000     0.000000000  0.036574293  0.000000000
     0.000000000  0.000000000 22.319049496     0.000000000  0.000000000  0.044804775

  length of vectors
    23.303857617 27.341608640 22.319049496     0.042911350  0.036574293  0.044804775

  position of ions in fractional coordinates (direct lattice)
     0.041666667  0.019596146  0.062688420
     0.208333333  0.019596146  0.062688420
     0.375000000  0.019596146  0.062688420
     0.541666667  0.019596146  0.062688420
     0.708333333  0.019596146  0.062688420
     0.875000000  0.019596146  0.062688420
     0.041666667  0.186262813  0.062688420
     0.208333333  0.186262813  0.062688420
     0.375000000  0.186262813  0.062688420
     0.541666667  0.186262813  0.062688420
     0.708333333  0.186262813  0.062688420
     0.875000000  0.186262813  0.062688420
     0.041666667  0.352929480  0.062688420
     0.208333333  0.352929480  0.062688420
     0.375000000  0.352929480  0.062688420
     0.541666667  0.352929480  0.062688420
     0.708333333  0.352929480  0.062688420
     0.875000000  0.352929480  0.062688420
     0.041666667  0.519596146  0.062688420
     0.208333333  0.519596146  0.062688420
     0.375000000  0.519596146  0.062688420
     0.541666667  0.519596146  0.062688420
     0.708333333  0.519596146  0.062688420
     0.875000000  0.519596146  0.062688420
     0.041666667  0.686262813  0.062688420
     0.208333333  0.686262813  0.062688420
     0.375000000  0.686262813  0.062688420
     0.541666667  0.686262813  0.062688420
     0.708333333  0.686262813  0.062688420
     0.875000000  0.686262813  0.062688420
     0.041666667  0.852929480  0.062688420
     0.208333333  0.852929480  0.062688420
     0.375000000  0.852929480  0.062688420
     0.541666667  0.852929480  0.062688420
     0.708333333  0.852929480  0.062688420
     0.875000000  0.852929480  0.062688420
     0.041666667  0.019596146  0.562688420
     0.208333333  0.019596146  0.562688420
     0.375000000  0.019596146  0.562688420
     0.541666667  0.019596146  0.562688420
     0.708333333  0.019596146  0.562688420
     0.875000000  0.019596146  0.562688420
     0.041666667  0.186262813  0.562688420
     0.208333333  0.186262813  0.562688420
     0.375000000  0.186262813  0.562688420
     0.541666667  0.186262813  0.562688420
     0.708333333  0.186262813  0.562688420
     0.875000000  0.186262813  0.562688420
     0.041666667  0.352929480  0.562688420
     0.208333333  0.352929480  0.562688420
     0.375000000  0.352929480  0.562688420
     0.541666667  0.352929480  0.562688420
     0.708333333  0.352929480  0.562688420
     0.875000000  0.352929480  0.562688420
     0.041666667  0.519596146  0.562688420
     0.208333333  0.519596146  0.562688420
     0.375000000  0.519596146  0.562688420
     0.541666667  0.519596146  0.562688420
     0.708333333  0.519596146  0.562688420
     0.875000000  0.519596146  0.562688420
[...]
     0.541666667  0.665971402  0.676138684
     0.708333333  0.665971402  0.676138684
     0.875000000  0.665971402  0.676138684
[...]
   -.769E-03 0.155E+02 0.275E+02   0.779E-03 -.180E+02 -.305E+02   -.167E-04 0.260E+01 0.297E+01   -.556E-05 0.734E-04 0.101E-03
   -.738E-03 0.155E+02 0.275E+02   0.741E-03 -.180E+02 -.305E+02   -.219E-04 0.260E+01 0.297E+01   0.573E-06 0.738E-04 0.994E-04
   0.513E-04 0.155E+02 0.275E+02   -.515E-04 -.180E+02 -.305E+02   -.593E-05 0.260E+01 0.297E+01   -.128E-05 0.730E-04 0.105E-03
   0.688E-03 0.155E+02 0.275E+02   -.700E-03 -.180E+02 -.305E+02   0.148E-04 0.260E+01 0.297E+01   0.916E-05 0.756E-04 0.991E-04
   0.727E-03 0.155E+02 0.275E+02   -.723E-03 -.180E+02 -.305E+02   0.206E-04 0.260E+01 0.297E+01   -.166E-05 0.768E-04 0.105E-03
   0.467E-04 0.155E+02 0.275E+02   -.458E-04 -.180E+02 -.305E+02   0.501E-05 0.260E+01 0.297E+01   -.117E-05 0.740E-04 0.102E-03
   -.184E-02 0.155E+02 0.275E+02   0.184E-02 -.180E+02 -.305E+02   -.697E-04 0.260E+01 0.297E+01   -.329E-05 0.780E-04 0.101E-03
   -.179E-02 0.155E+02 0.275E+02   0.179E-02 -.180E+02 -.305E+02   -.423E-04 0.260E+01 0.297E+01   0.362E-06 0.808E-04 0.984E-04
   0.434E-04 0.155E+02 0.275E+02   -.431E-04 -.180E+02 -.305E+02   -.109E-04 0.260E+01 0.297E+01   -.113E-05 0.794E-04 0.105E-03
   0.135E-02 0.155E+02 0.275E+02   -.136E-02 -.180E+02 -.305E+02   0.293E-04 0.260E+01 0.297E+01   0.488E-05 0.774E-04 0.973E-04
   0.172E-02 0.155E+02 0.275E+02   -.172E-02 -.180E+02 -.305E+02   0.513E-04 0.260E+01 0.297E+01   -.252E-05 0.730E-04 0.960E-04
   0.503E-03 0.155E+02 0.275E+02   -.514E-03 -.180E+02 -.305E+02   0.645E-04 0.260E+01 0.297E+01   0.164E-05 0.759E-04 0.964E-04
   -.506E-01 0.154E+02 0.275E+02   0.509E-01 -.180E+02 -.304E+02   -.396E-03 0.260E+01 0.297E+01   -.425E-05 0.816E-04 0.983E-04
   -.256E-02 0.154E+02 0.276E+02   0.259E-02 -.180E+02 -.305E+02   -.115E-03 0.260E+01 0.297E+01   -.241E-05 0.733E-04 0.102E-03
   0.463E-02 0.154E+02 0.275E+02   -.459E-02 -.180E+02 -.305E+02   0.611E-04 0.260E+01 0.297E+01   -.111E-05 0.724E-04 0.101E-03
   0.476E-02 0.155E+02 0.275E+02   -.475E-02 -.180E+02 -.305E+02   0.705E-04 0.260E+01 0.297E+01   0.138E-05 0.748E-04 0.100E-03
   0.897E-02 0.155E+02 0.275E+02   -.897E-02 -.180E+02 -.305E+02   0.804E-04 0.260E+01 0.297E+01   0.201E-06 0.779E-04 0.983E-04
   0.246E-01 0.155E+02 0.275E+02   -.245E-01 -.180E+02 -.305E+02   0.968E-04 0.260E+01 0.297E+01   0.650E-05 0.818E-04 0.999E-04
   -.308E-01 0.155E+02 0.276E+02   0.309E-01 -.181E+02 -.306E+02   -.674E-03 0.260E+01 0.297E+01   -.306E-05 0.759E-04 0.986E-04
   0.194E-01 0.155E+02 0.276E+02   -.203E-01 -.181E+02 -.305E+02   0.110E-02 0.260E+01 0.297E+01   -.849E-06 0.759E-04 0.101E-03
   0.869E-02 0.155E+02 0.275E+02   -.866E-02 -.180E+02 -.305E+02   0.180E-03 0.260E+01 0.297E+01   0.256E-06 0.747E-04 0.989E-04
   0.434E-02 0.155E+02 0.275E+02   -.434E-02 -.180E+02 -.305E+02   0.105E-03 0.260E+01 0.297E+01   0.153E-05 0.769E-04 0.965E-04
   0.272E-02 0.154E+02 0.275E+02   -.278E-02 -.180E+02 -.305E+02   0.112E-03 0.260E+01 0.297E+01   -.317E-05 0.739E-04 0.101E-03
   -.854E-02 0.154E+02 0.275E+02   0.869E-02 -.180E+02 -.305E+02   -.303E-03 0.260E+01 0.297E+01   0.543E-05 0.731E-04 0.973E-04
   -.388E-02 0.155E+02 0.275E+02   0.394E-02 -.181E+02 -.305E+02   -.119E-03 0.260E+01 0.297E+01   -.567E-06 0.707E-04 0.964E-04
   0.315E-02 0.155E+02 0.275E+02   -.314E-02 -.181E+02 -.305E+02   -.680E-04 0.260E+01 0.297E+01   0.168E-05 0.773E-04 0.102E-03
   0.357E-02 0.155E+02 0.275E+02   -.375E-02 -.181E+02 -.305E+02   0.266E-03 0.260E+01 0.297E+01   -.373E-05 0.762E-04 0.993E-04
   0.203E-02 0.155E+02 0.275E+02   -.206E-02 -.180E+02 -.305E+02   0.104E-03 0.260E+01 0.297E+01   0.501E-05 0.763E-04 0.921E-04
   -.385E-03 0.155E+02 0.275E+02   0.401E-03 -.180E+02 -.305E+02   -.147E-04 0.260E+01 0.297E+01   -.251E-05 0.758E-04 0.965E-04
   -.456E-02 0.155E+02 0.275E+02   0.463E-02 -.180E+02 -.305E+02   -.114E-03 0.260E+01 0.297E+01   0.297E-06 0.718E-04 0.995E-04
   -.105E-02 0.155E+02 0.275E+02   0.106E-02 -.181E+02 -.305E+02   -.282E-04 0.260E+01 0.297E+01   0.242E-05 0.757E-04 0.975E-04
   0.130E-03 0.155E+02 0.275E+02   -.126E-03 -.181E+02 -.305E+02   -.932E-05 0.260E+01 0.297E+01   -.357E-06 0.756E-04 0.987E-04
   0.949E-03 0.155E+02 0.275E+02   -.962E-03 -.180E+02 -.305E+02   0.175E-04 0.260E+01 0.297E+01   -.709E-06 0.747E-04 0.995E-04
   0.871E-03 0.155E+02 0.275E+02   -.898E-03 -.180E+02 -.305E+02   0.446E-04 0.260E+01 0.297E+01   0.126E-05 0.729E-04 0.100E-03
   0.899E-04 0.155E+02 0.275E+02   -.832E-04 -.180E+02 -.305E+02   0.219E-05 0.260E+01 0.297E+01   -.313E-05 0.714E-04 0.978E-04
   -.993E-03 0.155E+02 0.275E+02   0.101E-02 -.181E+02 -.305E+02   -.249E-04 0.260E+01 0.297E+01   0.802E-06 0.721E-04 0.960E-04
[...]
   0.129E-02 -.141E+02 -.264E+02   -.130E-02 0.156E+02 0.280E+02   -.182E-04 -.154E+01 -.165E+01   0.572E-06 0.347E-04 0.299E-04
   0.163E-03 -.141E+02 -.264E+02   -.163E-03 0.156E+02 0.280E+02   0.102E-05 -.154E+01 -.165E+01   0.328E-06 0.357E-04 0.259E-04
   -.422E-02 -.141E+02 -.264E+02   0.423E-02 0.156E+02 0.280E+02   0.389E-04 -.154E+01 -.165E+01   -.298E-05 0.336E-04 0.169E-04
   -.456E-02 -.141E+02 -.264E+02   0.457E-02 0.156E+02 0.280E+02   0.427E-04 -.154E+01 -.165E+01   0.201E-05 0.359E-04 0.128E-04
   -.233E-03 -.141E+02 -.264E+02   0.219E-03 0.156E+02 0.280E+02   0.843E-05 -.154E+01 -.165E+01   0.176E-05 0.359E-04 0.209E-04
   0.260E-02 -.141E+02 -.264E+02   -.259E-02 0.156E+02 0.280E+02   -.279E-04 -.154E+01 -.165E+01   -.189E-05 0.369E-04 0.281E-04
   0.406E-02 -.141E+02 -.264E+02   -.404E-02 0.156E+02 0.280E+02   -.430E-04 -.154E+01 -.165E+01   0.313E-05 0.332E-04 0.307E-04
   0.237E-02 -.141E+02 -.264E+02   -.239E-02 0.156E+02 0.280E+02   -.131E-04 -.154E+01 -.165E+01   -.260E-05 0.308E-04 0.307E-04
   -.145E-01 -.141E+02 -.264E+02   0.145E-01 0.156E+02 0.281E+02   0.499E-04 -.154E+01 -.165E+01   -.352E-05 0.439E-04 0.174E-04
   -.557E-02 -.141E+02 -.264E+02   0.552E-02 0.157E+02 0.280E+02   0.863E-04 -.154E+01 -.165E+01   0.130E-05 0.388E-04 0.201E-04
   0.281E-02 -.141E+02 -.264E+02   -.281E-02 0.156E+02 0.280E+02   -.252E-04 -.154E+01 -.165E+01   -.324E-05 0.363E-04 0.221E-04
   0.477E-02 -.141E+02 -.264E+02   -.476E-02 0.156E+02 0.280E+02   -.549E-04 -.154E+01 -.165E+01   -.525E-06 0.358E-04 0.244E-04
   0.685E-02 -.141E+02 -.264E+02   -.683E-02 0.156E+02 0.280E+02   -.636E-04 -.154E+01 -.165E+01   0.206E-05 0.389E-04 0.206E-04
   0.549E-02 -.141E+02 -.264E+02   -.541E-02 0.156E+02 0.281E+02   -.121E-03 -.154E+01 -.165E+01   0.316E-05 0.394E-04 0.193E-04
   -.400E-02 -.121E-01 0.140E-03   0.151E-12 -.167E-11 0.152E-11   0.404E-02 0.121E-01 -.119E-03   -.437E-06 -.212E-04 -.129E-04

 POSITION                                       TOTAL-FORCE (eV/Angst)
      0.97099      0.53579      1.39915         0.000041      0.005168      0.013656
      4.85497      0.53579      1.39915        -0.000073      0.005178      0.013528
      8.73895      0.53579      1.39915         0.000008      0.005185      0.013526
     12.62292      0.53579      1.39915         0.000042      0.005181      0.013522
     16.50690      0.53579      1.39915         0.000048      0.005175      0.013548
     20.39088      0.53579      1.39915        -0.000028      0.005055      0.013619
      0.97099      5.09272      1.39915        -0.000038      0.005093      0.013557
      4.85497      5.09272      1.39915        -0.000057      0.005160      0.013501
      8.73895      5.09272      1.39915         0.000051      0.005157      0.013502
     12.62292      5.09272      1.39915         0.000041      0.005171      0.013516
     16.50690      5.09272      1.39915         0.000017      0.005150      0.013543
     20.39088      5.09272      1.39915        -0.000028      0.005135      0.013585
      0.97099      9.64966      1.39915        -0.000015      0.005193      0.013470
      4.85497      9.64966      1.39915        -0.000012      0.005230      0.013438
      8.73895      9.64966      1.39915         0.000003      0.005203      0.013475
     12.62292      9.64966      1.39915         0.000023      0.005181      0.013496
     16.50690      9.64966      1.39915         0.000006      0.005162      0.013509
     20.39088      9.64966      1.39915        -0.000011      0.005164      0.013503
      0.97099     14.20659      1.39915        -0.000006      0.005219      0.013484
      4.85497     14.20659      1.39915        -0.000003      0.005222      0.013479
      8.73895     14.20659      1.39915        -0.000001      0.005220      0.013475
     12.62292     14.20659      1.39915         0.000003      0.005207      0.013480
     16.50690     14.20659      1.39915         0.000008      0.005202      0.013487
     20.39088     14.20659      1.39915        -0.000001      0.005210      0.013488
      0.97099     18.76353      1.39915        -0.000013      0.005231      0.013494
      4.85497     18.76353      1.39915        -0.000018      0.005220      0.013493
      8.73895     18.76353      1.39915        -0.000007      0.005213      0.013495
     12.62292     18.76353      1.39915         0.000012      0.005215      0.013494
     16.50690     18.76353      1.39915         0.000023      0.005227      0.013497
     20.39088     18.76353      1.39915         0.000005      0.005233      0.013493
      0.97099     23.32046      1.39915        -0.000076      0.005248      0.013522
      4.85497     23.32046      1.39915        -0.000047      0.005207      0.013521
      8.73895     23.32046      1.39915        -0.000012      0.005197      0.013512
     12.62292     23.32046      1.39915         0.000028      0.005205      0.013511
     16.50690     23.32046      1.39915         0.000050      0.005204      0.013509
     20.39088     23.32046      1.39915         0.000055      0.005253      0.013493
      0.97099      0.53579     12.55867        -0.000146      0.004673      0.013139
      4.85497      0.53579     12.55867        -0.000088      0.005040      0.013524
      8.73895      0.53579     12.55867         0.000103      0.005115      0.013520
     12.62292      0.53579     12.55867         0.000077      0.005165      0.013492
     16.50690      0.53579     12.55867         0.000085      0.005187      0.013433
     20.39088      0.53579     12.55867         0.000162      0.005132      0.013166
      0.97099      5.09272     12.55867        -0.000533      0.004917      0.013863
      4.85497      5.09272     12.55867         0.000197      0.005621      0.014496
      8.73895      5.09272     12.55867         0.000213      0.005039      0.013566
     12.62292      5.09272     12.55867         0.000102      0.005141      0.013500
     16.50690      5.09272     12.55867         0.000046      0.005085      0.013413
     20.39088      5.09272     12.55867        -0.000149      0.005149      0.013613
      0.97099      9.64966     12.55867        -0.000067      0.005291      0.013534
      4.85497      9.64966     12.55867        -0.000060      0.005333      0.013581
      8.73895      9.64966     12.55867         0.000081      0.005347      0.013608
     12.62292      9.64966     12.55867         0.000074      0.005166      0.013504
     16.50690      9.64966     12.55867        -0.000001      0.005165      0.013499
     20.39088      9.64966     12.55867        -0.000046      0.005221      0.013522
      0.97099     14.20659     12.55867        -0.000013      0.005245      0.013499
      4.85497     14.20659     12.55867        -0.000006      0.005253      0.013501
      8.73895     14.20659     12.55867         0.000004      0.005248      0.013501
     12.62292     14.20659     12.55867         0.000018      0.005235      0.013498
     16.50690     14.20659     12.55867         0.000006      0.005217      0.013496
     20.39088     14.20659     12.55867        -0.000008      0.005229      0.013496
[...]
     12.62292     18.20873     15.09077        -0.000006      0.000269      0.001614
     16.50690     18.20873     15.09077        -0.000022      0.000248      0.001634
     20.39088     18.20873     15.09077         0.000001      0.000252      0.001629
      0.97099     22.76566     15.09077         0.000047      0.000201      0.001691
      4.85497     22.76566     15.09077         0.000060      0.000261      0.001641
      8.73895     22.76566     15.09077        -0.000004      0.000308      0.001602
     12.62292     22.76566     15.09077        -0.000021      0.000291      0.001615
     16.50690     22.76566     15.09077        -0.000026      0.000270      0.001646
     20.39088     22.76566     15.09077        -0.000036      0.000228      0.001696
      0.97099     27.32260     15.09077         0.000032      0.000238      0.002141
      4.85497     27.32260     15.09077         0.000042      0.000393      0.001472
      8.73895     27.32260     15.09077        -0.000028      0.000369      0.001569
     12.62292     27.32260     15.09077        -0.000044      0.000318      0.001618
     16.50690     27.32260     15.09077        -0.000044      0.000286      0.001678
     20.39088     27.32260     15.09077        -0.000037      0.000200      0.001781
    total drift:                                0.000034      0.000006      0.000008

  FREE ENERGIE OF THE ION-ELECTRON SYSTEM (eV)
  free  energy   TOTEN  =     -2435.63569323 eV

  energy  without entropy=    -2435.63569323  energy(sigma->0) =    -2435.63569323

 writing wavefunctions

 total charge

[...]

 magnetization (x)

# of ion       s       p       d       tot
    1       -0.000   0.000  -0.000   0.000
    2       -0.000   0.000  -0.000   0.000
    3       -0.000   0.000  -0.000   0.000
    4       -0.000   0.000  -0.000   0.000
    5       -0.000   0.000  -0.000   0.000
    6       -0.000   0.000  -0.000   0.000
    7       -0.000   0.000  -0.000   0.000
    8       -0.000   0.000  -0.000   0.000
    9       -0.000   0.000  -0.000   0.000
   10       -0.000   0.000  -0.000   0.000
   11       -0.000   0.000  -0.000   0.000
   12       -0.000   0.000  -0.000   0.000
   13       -0.000   0.000  -0.000   0.000
   14       -0.000   0.000  -0.000   0.000
   15       -0.000   0.000  -0.000   0.000
   16       -0.000   0.000  -0.000   0.000
   17       -0.000   0.000  -0.000   0.000
   18       -0.000   0.000  -0.000   0.000
   19       -0.000   0.000  -0.000   0.000
   20       -0.000   0.000  -0.000   0.000
   21       -0.000   0.000  -0.000   0.000
   22       -0.000   0.000  -0.000   0.000
   23       -0.000   0.000  -0.000   0.000
   24       -0.000   0.000  -0.000   0.000
   25       -0.000   0.000  -0.000   0.000
   26       -0.000   0.000  -0.000   0.000
   27       -0.000   0.000  -0.000   0.000
   28       -0.000   0.000  -0.000   0.000
   29       -0.000   0.000  -0.000   0.000
   30       -0.000   0.000  -0.000   0.000
   31       -0.000   0.000  -0.000   0.000
   32       -0.000   0.000  -0.000   0.000
   33       -0.000   0.000  -0.000   0.000
   34       -0.000   0.000  -0.000   0.000
   35       -0.000   0.000  -0.000   0.000
   36       -0.000   0.000  -0.000   0.000
   37       -0.000   0.000  -0.000   0.000
   38       -0.000   0.000  -0.000   0.000
   39       -0.000   0.000  -0.000   0.000
   40       -0.000   0.000  -0.000   0.000
   41       -0.000   0.000  -0.000   0.000
   42       -0.000   0.000  -0.000   0.000
   43       -0.000   0.000  -0.000   0.000
   44       -0.000   0.000  -0.000   0.000
   45       -0.000   0.000  -0.000   0.000
   46       -0.000   0.000  -0.000   0.000
   47       -0.000   0.000  -0.000   0.000
   48       -0.000   0.000  -0.000   0.000
   49       -0.000   0.000  -0.000   0.000
   50       -0.000   0.000  -0.000   0.000
   51       -0.000   0.000  -0.000   0.000
   52       -0.000   0.000  -0.000   0.000
   53       -0.000   0.000  -0.000   0.000
   54       -0.000   0.000  -0.000   0.000
   55       -0.000   0.000  -0.000   0.000
   56       -0.000   0.000  -0.000   0.000
   57       -0.000   0.000  -0.000   0.000
   58       -0.000   0.000  -0.000   0.000
   59       -0.000   0.000  -0.000   0.000
   60       -0.000   0.000  -0.000   0.000
[...]
  562       -0.000  -0.000   0.000  -0.000
  563       -0.000  -0.000   0.000  -0.000
  564       -0.000  -0.000   0.000  -0.000
  565       -0.000  -0.000   0.000  -0.000
  566       -0.000  -0.000   0.000  -0.000
  567       -0.000  -0.000   0.000  -0.000
  568       -0.000  -0.000   0.000  -0.000
  569       -0.000  -0.000   0.000  -0.000
  570       -0.000  -0.000   0.000  -0.000
  571       -0.000  -0.000   0.000  -0.000
  572       -0.000  -0.000   0.000  -0.000
  573       -0.000  -0.000   0.000  -0.000
  574       -0.000  -0.000   0.000  -0.000
  575       -0.000  -0.000   0.000  -0.000
  576       -0.000  -0.000   0.000  -0.000
tot         -0.000  -0.000   0.000  -0.000