 vasp.6.4.2 20Jul23 (build Oct 12 2023 10:31:02) complex
 executed on              LinuxNV date 2024.10.11  15:47:59

 INCAR:
   ENCUT = 520.000000
   SIGMA = 0.050000
   EDIFF = 1.00e-06
   ALGO = N
   GGA = PE
   PREC = Accurate
   SYSTEM = SCF
   ICHARG = 0
   ISMEAR = 0
   ISPIN = 2
   ISTART = 1
   LORBIT = 11
   NBANDS = 1728
   NELM = 100
   NELMIN = 5
   IVDW = 11
   LASPH = .TRUE.
   LCHARG = .TRUE.
   LWAVE = .TRUE.
   LREAL = .FALSE.

 POTCAR:    PAW_PBE Ge 05Jan2001
 POTCAR:    PAW_PBE Se 06Sep2000
|           W    W    AA    RRRRR   N    N  II  N    N   GGGG   !!!           |
|           W    W   A  A   R    R  NN   N  II  NN   N  G    G  !!!           |
|           W    W  A    A  R    R  N N  N  II  N N  N  G       !!!           |
|           W WW W  AAAAAA  RRRRR   N  N N  II  N  N N  G  GGG   !            |
|           WW  WW  A    A  R   R   N   NN  II  N   NN  G    G                |
|           W    W  A    A  R    R  N    N  II  N    N   GGGG   !!!           |
|     You use a magnetic or noncollinear calculation, but did not specify     |
|     the initial magnetic moment with the MAGMOM tag. Note that a            |
|     default of 1 will be used for all atoms. This ferromagnetic setup       |
|     may break the symmetry of the crystal, in particular it may rule        |
|     out finding an antiferromagnetic solution. Thence, we recommend         |
|     setting the initial magnetic moment manually or verifying carefully     |
|     that this magnetic setup is desired.                                    |

 POTCAR:    PAW_PBE Ge 05Jan2001
   VRHFIN =Ge: s2p2

   TITEL  = PAW_PBE Ge 05Jan2001
   POMASS =   72.610; ZVAL   =    4.000    mass and valenz
   ENMAX  =  173.807; ENMIN  =  130.355 eV

 POTCAR:    PAW_PBE Se 06Sep2000
   VRHFIN =Se: s2p4

   TITEL  = PAW_PBE Se 06Sep2000
   POMASS =   78.960; ZVAL   =    6.000    mass and valenz
   ENMAX  =  211.555; ENMIN  =  158.666 eV

  PAW_PBE Ge 05Jan2001                  :
  PAW_PBE Se 06Sep2000                  :

 POSCAR: Ge Se
  positions in cartesian coordinates
 exchange correlation table for  LEXCH =        8
   RHO(1)=    0.500       N(1)  =     2000
   RHO(2)=  100.500       N(2)  =     4000

 ion  position               nearest neighbor table
   1  0.042  0.019  0.062- 361 2.60 366 2.60 535 2.60
   2  0.208  0.019  0.062- 362 2.60 361 2.60 536 2.60
   3  0.375  0.019  0.062- 363 2.60 362 2.60 537 2.60
   4  0.542  0.019  0.062- 364 2.60 363 2.60 538 2.60
   5  0.708  0.019  0.062- 365 2.60 364 2.60 539 2.60
   6  0.875  0.019  0.062- 366 2.60 365 2.60 540 2.60
   7  0.042  0.186  0.062- 367 2.60 372 2.60 505 2.60
   8  0.208  0.186  0.062- 368 2.60 367 2.60 506 2.60
   9  0.375  0.186  0.062- 369 2.60 368 2.60 507 2.60
  10  0.542  0.186  0.062- 370 2.60 369 2.60 508 2.60
  11  0.708  0.186  0.062- 371 2.60 370 2.60 509 2.60
  12  0.875  0.186  0.062- 372 2.60 371 2.60 510 2.60
  13  0.042  0.353  0.062- 373 2.60 378 2.60 511 2.60
  14  0.208  0.353  0.062- 374 2.60 373 2.60 512 2.60
  15  0.375  0.353  0.062- 375 2.60 374 2.60 513 2.60
  16  0.542  0.353  0.062- 376 2.60 375 2.60 514 2.60
  17  0.708  0.353  0.062- 377 2.60 376 2.60 515 2.60
  18  0.875  0.353  0.062- 378 2.60 377 2.60 516 2.60
  19  0.042  0.519  0.062- 379 2.60 384 2.60 517 2.60
  20  0.208  0.519  0.062- 380 2.60 379 2.60 518 2.60
  21  0.375  0.519  0.062- 381 2.60 380 2.60 519 2.60
  22  0.542  0.519  0.062- 382 2.60 381 2.60 520 2.60
  23  0.708  0.519  0.062- 383 2.60 382 2.60 521 2.60
  24  0.875  0.519  0.062- 384 2.60 383 2.60 522 2.60
  25  0.042  0.686  0.062- 385 2.60 390 2.60 523 2.60
  26  0.208  0.686  0.062- 386 2.60 385 2.60 524 2.60
  27  0.375  0.686  0.062- 387 2.60 386 2.60 525 2.60
  28  0.542  0.686  0.062- 388 2.60 387 2.60 526 2.60
  29  0.708  0.686  0.062- 389 2.60 388 2.60 527 2.60
  30  0.875  0.686  0.062- 390 2.60 389 2.60 528 2.60
  31  0.042  0.853  0.062- 391 2.60 396 2.60 529 2.60
  32  0.208  0.853  0.062- 392 2.60 391 2.60 530 2.60
  33  0.375  0.853  0.062- 393 2.60 392 2.60 531 2.60
  34  0.542  0.853  0.062- 394 2.60 393 2.60 532 2.60
  35  0.708  0.853  0.062- 395 2.60 394 2.60 533 2.60
  36  0.875  0.853  0.062- 396 2.60 395 2.60 534 2.60
  37  0.042  0.019  0.562- 397 2.60 402 2.60 571 2.60
  38  0.208  0.019  0.562- 398 2.60 397 2.60 572 2.60
  39  0.375  0.019  0.562- 399 2.60 398 2.60 573 2.60
  40  0.542  0.019  0.562- 400 2.60 399 2.60 574 2.60
  41  0.708  0.019  0.562- 401 2.60 400 2.60 575 2.60
  42  0.875  0.019  0.562- 402 2.60 401 2.60 576 2.60
  43  0.042  0.186  0.562- 403 2.60 408 2.60 541 2.60
  44  0.208  0.186  0.562- 404 2.60 403 2.60 542 2.60
  45  0.375  0.186  0.562- 405 2.60 404 2.60 543 2.60
  46  0.542  0.186  0.562- 406 2.60 405 2.60 544 2.60
  47  0.708  0.186  0.562- 407 2.60 406 2.60 545 2.60
  48  0.875  0.186  0.562- 408 2.60 407 2.60 546 2.60
  49  0.042  0.353  0.562- 409 2.60 414 2.60 547 2.60
  50  0.208  0.353  0.562- 410 2.60 409 2.60 548 2.60
  51  0.375  0.353  0.562- 411 2.60 410 2.60 549 2.60
  52  0.542  0.353  0.562- 412 2.60 411 2.60 550 2.60
  53  0.708  0.353  0.562- 413 2.60 412 2.60 551 2.60
  54  0.875  0.353  0.562- 414 2.60 413 2.60 552 2.60
  55  0.042  0.519  0.562- 415 2.60 420 2.60 553 2.60
  56  0.208  0.519  0.562- 416 2.60 415 2.60 554 2.60
  57  0.375  0.519  0.562- 417 2.60 416 2.60 555 2.60
  58  0.542  0.519  0.562- 418 2.60 417 2.60 556 2.60
  59  0.708  0.519  0.562- 419 2.60 418 2.60 557 2.60
  60  0.875  0.519  0.562- 420 2.60 419 2.60 558 2.60
[...]
 562  0.542  0.666  0.676- 202 2.60 201 2.60  64 2.60
 563  0.708  0.666  0.676- 203 2.60 202 2.60  65 2.60
 564  0.875  0.666  0.676- 204 2.60 203 2.60  66 2.60
 565  0.042  0.833  0.676- 205 2.60 210 2.60  67 2.60
 566  0.208  0.833  0.676- 206 2.60 205 2.60  68 2.60
 567  0.375  0.833  0.676- 207 2.60 206 2.60  69 2.60
 568  0.542  0.833  0.676- 208 2.60 207 2.60  70 2.60
 569  0.708  0.833  0.676- 209 2.60 208 2.60  71 2.60
 570  0.875  0.833  0.676- 210 2.60 209 2.60  72 2.60
 571  0.042  0.999  0.676- 211 2.60 216 2.60  37 2.60
 572  0.208  0.999  0.676- 212 2.60 211 2.60  38 2.60
 573  0.375  0.999  0.676- 213 2.60 212 2.60  39 2.60
 574  0.542  0.999  0.676- 214 2.60 213 2.60  40 2.60
 575  0.708  0.999  0.676- 215 2.60 214 2.60  41 2.60
 576  0.875  0.999  0.676- 216 2.60 215 2.60  42 2.60

  LATTYP: Found a simple orthorhombic cell.
 ALAT       =    22.1703538109
 B/A-ratio  =     1.0441241067
 C/A-ratio  =     1.2250346344

  Lattice vectors:

 A1 = (   0.0000000000,   0.0000000000,  22.1703538109)
 A2 = (  23.1486008673,   0.0000000000,   0.0000000000)
 A3 = (   0.0000000000,  27.1594512755,   0.0000000000)

Analysis of symmetry for initial positions (statically):
 Subroutine PRICEL returns:
 Original cell was already a primitive cell.

 Routine SETGRP: Setting up the symmetry group for a
 simple orthorhombic supercell.

 Subroutine GETGRP returns: Found  2 space group operations
 (whereof  1 operations were pure point group operations)
 out of a pool of  8 trial point group operations.

The static configuration has the point symmetry C_1 .
 The point group associated with its full space group is C_1h.

Analysis of symmetry for dynamics (positions and initial velocities):
 Subroutine PRICEL returns:
 Original cell was already a primitive cell.

[...]

The dynamic configuration has the point symmetry C_1 .
 The point group associated with its full space group is C_1h.

Analysis of structural, dynamic, and magnetic symmetry:
 Subroutine PRICEL returns:
 Original cell was already a primitive cell.

 Routine SETGRP: Setting up the symmetry group for a
 simple orthorhombic supercell.

 Subroutine GETGRP returns: Found  2 space group operations
 (whereof  1 operations were pure point group operations)
 out of a pool of  8 trial point group operations.

The overall configuration has the point symmetry C_1 .
 The point group associated with its full space group is C_1h.

 Subroutine INISYM returns: Found  2 space group operations
 (whereof  1 operations are pure point group operations),
 and found     1 'primitive' translations

                                     Primitive cell

  volume of cell :   13938.5745

  direct lattice vectors                    reciprocal lattice vectors
    23.148600867  0.000000000  0.000000000     0.043199155  0.000000000  0.000000000
     0.000000000 27.159451275  0.000000000     0.000000000  0.036819595  0.000000000
     0.000000000  0.000000000 22.170353811     0.000000000  0.000000000  0.045105279

  length of vectors
    23.148600867 27.159451275 22.170353811     0.043199155  0.036819595  0.045105279

  position of ions in fractional coordinates (direct lattice)
     0.041666667  0.019273650  0.061770136
     0.208333333  0.019273650  0.061770136
     0.375000000  0.019273650  0.061770136
     0.541666667  0.019273650  0.061770136
     0.708333333  0.019273650  0.061770136
     0.875000000  0.019273650  0.061770136
     0.041666667  0.185940316  0.061770136
     0.208333333  0.185940316  0.061770136
     0.375000000  0.185940316  0.061770136
     0.541666667  0.185940316  0.061770136
     0.708333333  0.185940316  0.061770136
     0.875000000  0.185940316  0.061770136
     0.041666667  0.352606983  0.061770136
     0.208333333  0.352606983  0.061770136
     0.375000000  0.352606983  0.061770136
     0.541666667  0.352606983  0.061770136
     0.708333333  0.352606983  0.061770136
     0.875000000  0.352606983  0.061770136
     0.041666667  0.519273650  0.061770136
     0.208333333  0.519273650  0.061770136
     0.375000000  0.519273650  0.061770136
     0.541666667  0.519273650  0.061770136
     0.708333333  0.519273650  0.061770136
     0.875000000  0.519273650  0.061770136
     0.041666667  0.685940316  0.061770136
     0.208333333  0.685940316  0.061770136
     0.375000000  0.685940316  0.061770136
     0.541666667  0.685940316  0.061770136
     0.708333333  0.685940316  0.061770136
     0.875000000  0.685940316  0.061770136
     0.041666667  0.852606983  0.061770136
     0.208333333  0.852606983  0.061770136
     0.375000000  0.852606983  0.061770136
     0.541666667  0.852606983  0.061770136
     0.708333333  0.852606983  0.061770136
     0.875000000  0.852606983  0.061770136
     0.041666667  0.019273650  0.561770136
     0.208333333  0.019273650  0.561770136
     0.375000000  0.019273650  0.561770136
     0.541666667  0.019273650  0.561770136
     0.708333333  0.019273650  0.561770136
     0.875000000  0.019273650  0.561770136
     0.041666667  0.185940316  0.561770136
     0.208333333  0.185940316  0.561770136
     0.375000000  0.185940316  0.561770136
     0.541666667  0.185940316  0.561770136
     0.708333333  0.185940316  0.561770136
     0.875000000  0.185940316  0.561770136
     0.041666667  0.352606983  0.561770136
     0.208333333  0.352606983  0.561770136
     0.375000000  0.352606983  0.561770136
     0.541666667  0.352606983  0.561770136
     0.708333333  0.352606983  0.561770136
     0.875000000  0.352606983  0.561770136
     0.041666667  0.519273650  0.561770136
     0.208333333  0.519273650  0.561770136
     0.375000000  0.519273650  0.561770136
     0.541666667  0.519273650  0.561770136
[...]
   -.813E-09 0.156E+02 0.263E+02   -.442E-08 -.182E+02 -.292E+02   0.000E+00 0.256E+01 0.292E+01   -.198E-11 0.155E-04 0.123E-04
   0.327E-03 0.156E+02 0.263E+02   -.332E-03 -.182E+02 -.292E+02   0.135E-04 0.256E+01 0.292E+01   -.317E-05 0.149E-04 0.128E-04
   0.279E-03 0.156E+02 0.263E+02   -.279E-03 -.182E+02 -.292E+02   0.283E-04 0.256E+01 0.292E+01   0.158E-05 0.122E-04 0.674E-05
   -.812E-09 0.156E+02 0.263E+02   -.442E-08 -.182E+02 -.292E+02   0.000E+00 0.256E+01 0.292E+01   -.197E-11 0.113E-04 0.908E-05
   -.279E-03 0.156E+02 0.263E+02   0.279E-03 -.182E+02 -.292E+02   -.283E-04 0.256E+01 0.292E+01   -.158E-05 0.122E-04 0.674E-05
   -.327E-03 0.156E+02 0.263E+02   0.332E-03 -.182E+02 -.292E+02   -.135E-04 0.256E+01 0.292E+01   0.317E-05 0.149E-04 0.128E-04
   -.813E-09 0.156E+02 0.263E+02   -.442E-08 -.182E+02 -.292E+02   0.000E+00 0.256E+01 0.292E+01   -.204E-11 0.960E-05 0.940E-05
   0.141E-02 0.156E+02 0.263E+02   -.148E-02 -.182E+02 -.292E+02   0.193E-03 0.256E+01 0.292E+01   -.437E-06 0.120E-04 0.122E-04
   0.992E-03 0.156E+02 0.263E+02   -.987E-03 -.182E+02 -.292E+02   0.502E-04 0.256E+01 0.292E+01   0.475E-07 0.152E-04 0.105E-04
   -.812E-09 0.156E+02 0.263E+02   -.442E-08 -.182E+02 -.292E+02   0.000E+00 0.256E+01 0.292E+01   -.201E-11 0.168E-04 0.764E-05
   -.992E-03 0.156E+02 0.263E+02   0.987E-03 -.182E+02 -.292E+02   -.502E-04 0.256E+01 0.292E+01   -.475E-07 0.152E-04 0.105E-04
   -.141E-02 0.156E+02 0.263E+02   0.148E-02 -.182E+02 -.292E+02   -.193E-03 0.256E+01 0.292E+01   0.437E-06 0.120E-04 0.122E-04
   -.813E-09 0.157E+02 0.262E+02   -.442E-08 -.183E+02 -.291E+02   0.000E+00 0.256E+01 0.291E+01   -.203E-11 0.116E-04 0.484E-05
   -.320E-01 0.156E+02 0.263E+02   0.315E-01 -.182E+02 -.292E+02   0.342E-03 0.256E+01 0.292E+01   -.367E-07 0.686E-05 0.870E-05
   -.498E-02 0.156E+02 0.263E+02   0.496E-02 -.182E+02 -.292E+02   -.404E-04 0.256E+01 0.292E+01   0.173E-05 0.626E-05 0.539E-05
   -.812E-09 0.156E+02 0.263E+02   -.442E-08 -.182E+02 -.292E+02   0.000E+00 0.256E+01 0.292E+01   -.190E-11 0.714E-05 0.721E-05
   0.498E-02 0.156E+02 0.263E+02   -.496E-02 -.182E+02 -.292E+02   0.404E-04 0.256E+01 0.292E+01   -.173E-05 0.626E-05 0.539E-05
   0.320E-01 0.156E+02 0.263E+02   -.315E-01 -.182E+02 -.292E+02   -.342E-03 0.256E+01 0.292E+01   0.367E-07 0.686E-05 0.870E-05
   -.813E-09 0.155E+02 0.262E+02   -.442E-08 -.181E+02 -.291E+02   0.000E+00 0.256E+01 0.292E+01   -.219E-11 0.194E-04 0.242E-05
   -.206E-01 0.156E+02 0.263E+02   0.213E-01 -.182E+02 -.292E+02   -.103E-02 0.256E+01 0.292E+01   -.274E-05 0.214E-04 0.562E-05
   -.424E-02 0.156E+02 0.263E+02   0.420E-02 -.182E+02 -.292E+02   -.803E-04 0.256E+01 0.292E+01   -.300E-06 0.167E-04 0.617E-05
   -.812E-09 0.156E+02 0.263E+02   -.442E-08 -.182E+02 -.292E+02   0.000E+00 0.256E+01 0.292E+01   -.193E-11 0.138E-04 0.942E-05
   0.424E-02 0.156E+02 0.263E+02   -.420E-02 -.182E+02 -.292E+02   0.803E-04 0.256E+01 0.292E+01   0.300E-06 0.167E-04 0.617E-05
   0.206E-01 0.156E+02 0.263E+02   -.213E-01 -.182E+02 -.292E+02   0.103E-02 0.256E+01 0.292E+01   0.274E-05 0.214E-04 0.562E-05
   -.813E-09 0.156E+02 0.263E+02   -.442E-08 -.182E+02 -.292E+02   0.000E+00 0.256E+01 0.292E+01   -.214E-11 0.103E-04 0.160E-05
   -.207E-02 0.156E+02 0.263E+02   0.214E-02 -.182E+02 -.292E+02   -.731E-04 0.256E+01 0.292E+01   -.322E-05 0.990E-05 0.580E-05
   -.101E-02 0.156E+02 0.263E+02   0.113E-02 -.182E+02 -.292E+02   -.174E-03 0.256E+01 0.292E+01   -.149E-05 0.111E-04 0.515E-05
   -.812E-09 0.156E+02 0.263E+02   -.442E-08 -.182E+02 -.292E+02   0.000E+00 0.256E+01 0.292E+01   -.201E-11 0.124E-04 0.871E-05
   0.101E-02 0.156E+02 0.263E+02   -.113E-02 -.182E+02 -.292E+02   0.174E-03 0.256E+01 0.292E+01   0.149E-05 0.111E-04 0.515E-05
   0.207E-02 0.156E+02 0.263E+02   -.214E-02 -.182E+02 -.292E+02   0.731E-04 0.256E+01 0.292E+01   0.322E-05 0.990E-05 0.580E-05
   -.813E-09 0.156E+02 0.263E+02   -.442E-08 -.182E+02 -.292E+02   0.000E+00 0.256E+01 0.292E+01   -.198E-11 0.135E-04 0.758E-05
   -.300E-03 0.156E+02 0.263E+02   0.313E-03 -.182E+02 -.292E+02   -.837E-05 0.256E+01 0.292E+01   -.475E-05 0.119E-04 0.103E-04
   -.245E-03 0.156E+02 0.263E+02   0.257E-03 -.182E+02 -.292E+02   -.117E-04 0.256E+01 0.292E+01   -.346E-07 0.852E-05 0.141E-04
   -.812E-09 0.156E+02 0.263E+02   -.442E-08 -.182E+02 -.292E+02   0.000E+00 0.256E+01 0.292E+01   -.204E-11 0.934E-05 0.111E-04
   0.245E-03 0.156E+02 0.263E+02   -.257E-03 -.182E+02 -.292E+02   0.117E-04 0.256E+01 0.292E+01   0.346E-07 0.852E-05 0.141E-04
   0.300E-03 0.156E+02 0.263E+02   -.313E-03 -.182E+02 -.292E+02   0.837E-05 0.256E+01 0.292E+01   0.475E-05 0.119E-04 0.103E-04
[...]
   0.523E-03 -.142E+02 -.246E+02   -.530E-03 0.158E+02 0.262E+02   0.155E-05 -.152E+01 -.158E+01   0.166E-05 0.631E-05 0.239E-04
   0.642E-03 -.142E+02 -.246E+02   -.639E-03 0.158E+02 0.262E+02   0.248E-05 -.152E+01 -.158E+01   -.161E-05 0.622E-05 0.179E-04
   -.838E-09 -.142E+02 -.246E+02   -.511E-08 0.158E+02 0.262E+02   0.000E+00 -.152E+01 -.158E+01   -.400E-11 0.348E-05 0.110E-04
   -.357E-02 -.142E+02 -.246E+02   0.356E-02 0.158E+02 0.262E+02   0.360E-05 -.152E+01 -.158E+01   -.462E-06 0.312E-05 0.117E-04
   -.209E-02 -.142E+02 -.246E+02   0.211E-02 0.158E+02 0.262E+02   -.851E-05 -.152E+01 -.158E+01   0.414E-05 0.436E-05 0.153E-04
   -.838E-09 -.142E+02 -.246E+02   -.511E-08 0.158E+02 0.262E+02   0.000E+00 -.152E+01 -.158E+01   -.375E-11 0.327E-05 0.221E-04
   0.209E-02 -.142E+02 -.246E+02   -.211E-02 0.158E+02 0.262E+02   0.851E-05 -.152E+01 -.158E+01   -.414E-05 0.436E-05 0.153E-04
   0.357E-02 -.142E+02 -.246E+02   -.356E-02 0.158E+02 0.262E+02   -.360E-05 -.152E+01 -.158E+01   0.462E-06 0.312E-05 0.117E-04
   -.838E-09 -.142E+02 -.246E+02   -.511E-08 0.158E+02 0.262E+02   0.000E+00 -.152E+01 -.158E+01   -.390E-11 0.624E-06 0.146E-04
   -.173E-01 -.142E+02 -.246E+02   0.173E-01 0.158E+02 0.262E+02   0.206E-03 -.152E+01 -.158E+01   0.587E-06 -.137E-05 0.152E-04
   -.609E-02 -.142E+02 -.246E+02   0.609E-02 0.158E+02 0.262E+02   0.373E-04 -.152E+01 -.158E+01   0.164E-05 -.788E-06 0.140E-04
   -.838E-09 -.142E+02 -.246E+02   -.511E-08 0.158E+02 0.262E+02   0.000E+00 -.152E+01 -.158E+01   -.367E-11 -.196E-05 0.144E-04
   0.609E-02 -.142E+02 -.246E+02   -.609E-02 0.158E+02 0.262E+02   -.373E-04 -.152E+01 -.158E+01   -.164E-05 -.788E-06 0.140E-04
   0.173E-01 -.142E+02 -.246E+02   -.173E-01 0.158E+02 0.262E+02   -.206E-03 -.152E+01 -.158E+01   -.587E-06 -.137E-05 0.152E-04
   0.657E-05 0.220E-01 0.159E-01   -.732E-13 -.274E-11 -.779E-11   0.271E-19 -.220E-01 -.160E-01   0.453E-10 -.848E-05 0.522E-06

 POSITION                                       TOTAL-FORCE (eV/Angst)
      0.96453      0.52346      1.36947        -0.000000     -0.001087     -0.002017
      4.82263      0.52346      1.36947         0.000204     -0.001413     -0.001690
      8.68073      0.52346      1.36947         0.000062     -0.001350     -0.001609
     12.53883      0.52346      1.36947        -0.000000     -0.001335     -0.001590
     16.39693      0.52346      1.36947        -0.000062     -0.001350     -0.001609
     20.25503      0.52346      1.36947        -0.000204     -0.001413     -0.001690
      0.96453      5.05004      1.36947        -0.000000     -0.001197     -0.001835
      4.82263      5.05004      1.36947        -0.000061     -0.001285     -0.001910
      8.68073      5.05004      1.36947         0.000072     -0.001347     -0.001617
     12.53883      5.05004      1.36947        -0.000000     -0.001333     -0.001591
     16.39693      5.05004      1.36947        -0.000072     -0.001347     -0.001617
     20.25503      5.05004      1.36947         0.000061     -0.001285     -0.001910
      0.96453      9.57661      1.36947        -0.000000     -0.001296     -0.001604
      4.82263      9.57661      1.36947        -0.000013     -0.001278     -0.001628
      8.68073      9.57661      1.36947         0.000001     -0.001284     -0.001614
     12.53883      9.57661      1.36947        -0.000000     -0.001320     -0.001589
     16.39693      9.57661      1.36947        -0.000001     -0.001284     -0.001614
     20.25503      9.57661      1.36947         0.000013     -0.001278     -0.001628
      0.96453     14.10319      1.36947        -0.000000     -0.001323     -0.001572
      4.82263     14.10319      1.36947         0.000001     -0.001323     -0.001570
      8.68073     14.10319      1.36947        -0.000008     -0.001320     -0.001577
     12.53883     14.10319      1.36947        -0.000000     -0.001308     -0.001578
     16.39693     14.10319      1.36947         0.000008     -0.001320     -0.001577
     20.25503     14.10319      1.36947        -0.000001     -0.001323     -0.001570
      0.96453     18.62976      1.36947        -0.000000     -0.001356     -0.001568
      4.82263     18.62976      1.36947         0.000006     -0.001349     -0.001564
      8.68073     18.62976      1.36947         0.000030     -0.001335     -0.001571
     12.53883     18.62976      1.36947        -0.000000     -0.001334     -0.001569
     16.39693     18.62976      1.36947        -0.000030     -0.001335     -0.001571
     20.25503     18.62976      1.36947        -0.000006     -0.001349     -0.001564
      0.96453     23.15634      1.36947        -0.000000     -0.001460     -0.001619
      4.82263     23.15634      1.36947         0.000129     -0.001381     -0.001536
      8.68073     23.15634      1.36947         0.000055     -0.001347     -0.001585
     12.53883     23.15634      1.36947        -0.000000     -0.001337     -0.001578
     16.39693     23.15634      1.36947        -0.000055     -0.001347     -0.001585
     20.25503     23.15634      1.36947        -0.000129     -0.001381     -0.001536
      0.96453      0.52346     12.45464        -0.000000     -0.000844     -0.002760
      4.82263      0.52346     12.45464        -0.000222     -0.000800     -0.001240
      8.68073      0.52346     12.45464        -0.000052     -0.001261     -0.001541
     12.53883      0.52346     12.45464        -0.000000     -0.001286     -0.001549
     16.39693      0.52346     12.45464         0.000052     -0.001261     -0.001541
     20.25503      0.52346     12.45464         0.000222     -0.000800     -0.001240
      0.96453      5.05004     12.45464        -0.000000     -0.001268     -0.001464
      4.82263      5.05004     12.45464        -0.000390     -0.001596     -0.002183
      8.68073      5.05004     12.45464        -0.000120     -0.001212     -0.001551
     12.53883      5.05004     12.45464        -0.000000     -0.001269     -0.001543
     16.39693      5.05004     12.45464         0.000120     -0.001212     -0.001551
     20.25503      5.05004     12.45464         0.000390     -0.001596     -0.002183
      0.96453      9.57661     12.45464        -0.000000     -0.001463     -0.001555
      4.82263      9.57661     12.45464        -0.000012     -0.001458     -0.001580
      8.68073      9.57661     12.45464        -0.000056     -0.001401     -0.001576
     12.53883      9.57661     12.45464        -0.000000     -0.001296     -0.001554
     16.39693      9.57661     12.45464         0.000056     -0.001401     -0.001576
     20.25503      9.57661     12.45464         0.000012     -0.001458     -0.001580
      0.96453     14.10319     12.45464        -0.000000     -0.001363     -0.001542
      4.82263     14.10319     12.45464         0.000000     -0.001359     -0.001543
      8.68073     14.10319     12.45464         0.000001     -0.001355     -0.001542
     12.53883     14.10319     12.45464        -0.000000     -0.001359     -0.001547
     16.39693     14.10319     12.45464        -0.000001     -0.001355     -0.001542
     20.25503     14.10319     12.45464        -0.000000     -0.001359     -0.001543
[...]
     12.53883     18.08390     14.99414        -0.000000     -0.010550     -0.007789
     16.39693     18.08390     14.99414        -0.000003     -0.010555     -0.007787
     20.25503     18.08390     14.99414         0.000004     -0.010548     -0.007796
      0.96453     22.61047     14.99414        -0.000000     -0.010567     -0.007783
      4.82263     22.61047     14.99414         0.000001     -0.010583     -0.007790
      8.68073     22.61047     14.99414         0.000015     -0.010575     -0.007784
     12.53883     22.61047     14.99414        -0.000000     -0.010571     -0.007785
     16.39693     22.61047     14.99414        -0.000015     -0.010575     -0.007784
     20.25503     22.61047     14.99414        -0.000001     -0.010583     -0.007790
      0.96453     27.13705     14.99414        -0.000000     -0.010916     -0.006001
      4.82263     27.13705     14.99414         0.000205     -0.010788     -0.007806
      8.68073     27.13705     14.99414         0.000036     -0.010598     -0.007782
     12.53883     27.13705     14.99414        -0.000000     -0.010588     -0.007781
     16.39693     27.13705     14.99414        -0.000036     -0.010598     -0.007782
     20.25503     27.13705     14.99414        -0.000205     -0.010788     -0.007806
    total drift:                                0.000007      0.000005     -0.000007

  FREE ENERGIE OF THE ION-ELECTRON SYSTEM (eV)
  free  energy   TOTEN  =     -2563.61400074 eV

  energy  without entropy=    -2563.61400074  energy(sigma->0) =    -2563.61400074

 writing wavefunctions

 total charge

[...]

 magnetization (x)

# of ion       s       p       d       tot
    1       -0.000   0.000   0.000   0.000
    2       -0.000   0.000   0.000   0.000
    3       -0.000   0.000   0.000   0.000
    4       -0.000   0.000   0.000   0.000
    5       -0.000   0.000   0.000   0.000
    6       -0.000   0.000   0.000   0.000
    7       -0.000   0.000   0.000   0.000
    8       -0.000   0.000   0.000   0.000
    9       -0.000   0.000   0.000   0.000
   10       -0.000   0.000   0.000   0.000
   11       -0.000   0.000   0.000   0.000
   12       -0.000   0.000   0.000   0.000
   13       -0.000   0.000   0.000   0.000
   14       -0.000   0.000   0.000   0.000
   15       -0.000   0.000   0.000   0.000
   16       -0.000   0.000   0.000   0.000
   17       -0.000   0.000   0.000   0.000
   18       -0.000   0.000   0.000   0.000
   19       -0.000   0.000   0.000   0.000
   20       -0.000   0.000   0.000   0.000
   21       -0.000   0.000   0.000   0.000
   22       -0.000   0.000   0.000   0.000
   23       -0.000   0.000   0.000   0.000
   24       -0.000   0.000   0.000   0.000
   25       -0.000   0.000   0.000   0.000
   26       -0.000   0.000   0.000   0.000
   27       -0.000   0.000   0.000   0.000
   28       -0.000   0.000   0.000   0.000
   29       -0.000   0.000   0.000   0.000
   30       -0.000   0.000   0.000   0.000
   31       -0.000   0.000   0.000   0.000
   32       -0.000   0.000   0.000   0.000
   33       -0.000   0.000   0.000   0.000
   34       -0.000   0.000   0.000   0.000
   35       -0.000   0.000   0.000   0.000
   36       -0.000   0.000   0.000   0.000
   37       -0.000   0.000  -0.000   0.000
   38       -0.000   0.000  -0.000   0.000
   39       -0.000   0.000   0.000   0.000
   40       -0.000   0.000   0.000   0.000
   41       -0.000   0.000   0.000   0.000
   42       -0.000   0.000  -0.000   0.000
   43       -0.000   0.000  -0.000   0.000
   44       -0.000   0.000  -0.000   0.000
   45       -0.000   0.000   0.000   0.000
   46       -0.000   0.000   0.000   0.000
   47       -0.000   0.000   0.000   0.000
   48       -0.000   0.000  -0.000   0.000
   49       -0.000   0.000   0.000   0.000
   50       -0.000   0.000   0.000   0.000
   51       -0.000   0.000   0.000   0.000
   52       -0.000   0.000   0.000   0.000
   53       -0.000   0.000   0.000   0.000
   54       -0.000   0.000   0.000   0.000
   55       -0.000   0.000   0.000   0.000
   56       -0.000   0.000   0.000   0.000
   57       -0.000   0.000   0.000   0.000
   58       -0.000   0.000   0.000   0.000
   59       -0.000   0.000   0.000   0.000
   60       -0.000   0.000   0.000   0.000
[...]
  562       -0.000  -0.000   0.000  -0.000
  563       -0.000  -0.000   0.000  -0.000
  564       -0.000  -0.000   0.000  -0.000
  565       -0.000  -0.000   0.000  -0.000
  566       -0.000  -0.000   0.000  -0.000
  567       -0.000  -0.000   0.000  -0.000
  568       -0.000  -0.000   0.000  -0.000
  569       -0.000  -0.000   0.000  -0.000
  570       -0.000  -0.000   0.000  -0.000
  571       -0.000  -0.000   0.000  -0.000
  572       -0.000  -0.000   0.000  -0.000
  573       -0.000  -0.000   0.000  -0.000
  574       -0.000  -0.000   0.000  -0.000
  575       -0.000  -0.000   0.000  -0.000
  576       -0.000  -0.000   0.000  -0.000
tot         -0.000  -0.000   0.000  -0.000