 vasp.6.4.2 20Jul23 (build Oct 12 2023 10:31:02) complex
 executed on              LinuxNV date 2025.05.28  02:07:07

 INCAR:
   ENCUT = 360.000000
   SIGMA = 0.050000
   EDIFF = 1.00e-06
   ALGO = Normal
   GGA = PE
   PREC = Normal
   SYSTEM = ./
   ICHARG = 2
   ISMEAR = 0
   ISPIN = 1
   ISTART = 0
   ISYM = 0
   KPAR = 2
   LMAXMIX = 4
   NELM = 100
   NPAR = 16
   LASPH = .TRUE.
   LCHARG = .FALSE.
   LWAVE = .FALSE.

 POTCAR:    PAW_PBE Ge 05Jan2001
 POTCAR:    PAW_PBE Se 06Sep2000
 POTCAR:    PAW_PBE Ge 05Jan2001
   VRHFIN =Ge: s2p2

   TITEL  = PAW_PBE Ge 05Jan2001
   POMASS =   72.610; ZVAL   =    4.000    mass and valenz
   ENMAX  =  173.807; ENMIN  =  130.355 eV

 POTCAR:    PAW_PBE Se 06Sep2000
   VRHFIN =Se: s2p4

   TITEL  = PAW_PBE Se 06Sep2000
   POMASS =   78.960; ZVAL   =    6.000    mass and valenz
   ENMAX  =  211.555; ENMIN  =  158.666 eV

  PAW_PBE Ge 05Jan2001                  :
  PAW_PBE Se 06Sep2000                  :

 POSCAR: Ge Se
  positions in cartesian coordinates
 exchange correlation table for  LEXCH =        8
   RHO(1)=    0.500       N(1)  =     2000
   RHO(2)=  100.500       N(2)  =     4000

 ion  position               nearest neighbor table
   1  0.083  0.250  0.118-   6 2.57   6 2.57   5 2.62
   2  0.583  0.750  0.382-   5 2.57   5 2.57   6 2.62
   3  0.917  0.750  0.882-   8 2.57   8 2.57   7 2.62
   4  0.417  0.250  0.618-   7 2.57   7 2.57   8 2.62
   5  0.014  0.250  0.352-   2 2.57   2 2.57   1 2.62
   6  0.514  0.750  0.148-   1 2.57   1 2.57   2 2.62
   7  0.986  0.750  0.648-   4 2.57   4 2.57   3 2.62
   8  0.486  0.250  0.852-   3 2.57   3 2.57   4 2.62

IMPORTANT INFORMATION: All symmetrisations will be switched off!
NOSYMM: (Re-)initialisation of all symmetry stuff for point group C_1.

                                     Primitive cell

  volume of cell :     166.9662

  direct lattice vectors                    reciprocal lattice vectors
     4.050000000  0.000000000  0.000000000     0.246913580  0.000000000  0.000000000
     0.000000000  3.700000000  0.000000000     0.000000000  0.270270270  0.000000000
     0.000000000  0.000000000 11.142221000     0.000000000  0.000000000  0.089748713

  length of vectors
     4.050000000  3.700000000 11.142221000     0.246913580  0.270270270  0.089748713

  position of ions in fractional coordinates (direct lattice)
     0.082980533  0.250000000  0.118021369
     0.582980533  0.750000000  0.381978631
     0.917019467  0.750000000  0.881978631
     0.417019467  0.250000000  0.618021369
     0.014269716  0.250000000  0.352201741
     0.514269716  0.750000000  0.147798259
     0.985730284  0.750000000  0.647798259
     0.485730284  0.250000000  0.852201741

  ion indices of the primitive-cell ions
   primitive index   ion index
                 1           1
                 2           2
                 3           3
                 4           4
                 5           5
                 6           6
                 7           7
                 8           8

 KPOINTS: KPOINTS created by Atomic Simulation Env

Automatic generation of k-mesh.
 Grid dimensions read from file:
 generate k-points for:    6    6    2

 Generating k-lattice:

  Cartesian coordinates                     Fractional coordinates (reciprocal lattice)
     0.041152263  0.000000000  0.000000000     0.166666667  0.000000000  0.000000000
     0.000000000  0.045045045  0.000000000     0.000000000  0.166666667  0.000000000
     0.000000000  0.000000000  0.044874357     0.000000000  0.000000000  0.500000000

  Length of vectors
     0.041152263  0.045045045  0.044874357

  Shift w.r.t. Gamma in fractional coordinates (k-lattice)
     0.000000000  0.000000000  0.000000000

 Subroutine IBZKPT returns following result:

 Found     40 irreducible k-points:

 Following reciprocal coordinates:
            Coordinates               Weight
  0.000000  0.000000  0.000000      1.000000
  0.166667  0.000000  0.000000      2.000000
  0.333333  0.000000  0.000000      2.000000
  0.500000  0.000000  0.000000      1.000000
  0.000000  0.166667  0.000000      2.000000
  0.166667  0.166667  0.000000      2.000000
 -0.166667  0.166667  0.000000      2.000000
  0.333333  0.166667  0.000000      2.000000
 -0.333333  0.166667  0.000000      2.000000
  0.500000  0.166667  0.000000      2.000000
  0.000000  0.333333  0.000000      2.000000
  0.166667  0.333333  0.000000      2.000000
 -0.166667  0.333333  0.000000      2.000000
  0.333333  0.333333  0.000000      2.000000
 -0.333333  0.333333  0.000000      2.000000
  0.500000  0.333333  0.000000      2.000000
  0.000000  0.500000  0.000000      1.000000
  0.166667  0.500000  0.000000      2.000000
  0.333333  0.500000  0.000000      2.000000
  0.500000  0.500000  0.000000      1.000000
  0.000000  0.000000  0.500000      1.000000
  0.166667  0.000000  0.500000      2.000000
  0.333333  0.000000  0.500000      2.000000
  0.500000  0.000000  0.500000      1.000000
  0.000000  0.166667  0.500000      2.000000
  0.166667  0.166667  0.500000      2.000000
 -0.166667  0.166667  0.500000      2.000000
  0.333333  0.166667  0.500000      2.000000
 -0.333333  0.166667  0.500000      2.000000
  0.500000  0.166667  0.500000      2.000000
  0.000000  0.333333  0.500000      2.000000
  0.166667  0.333333  0.500000      2.000000
 -0.166667  0.333333  0.500000      2.000000
  0.333333  0.333333  0.500000      2.000000
 -0.333333  0.333333  0.500000      2.000000
  0.500000  0.333333  0.500000      2.000000
  0.000000  0.500000  0.500000      1.000000
  0.166667  0.500000  0.500000      2.000000
  0.333333  0.500000  0.500000      2.000000
  0.500000  0.500000  0.500000      1.000000

 Following cartesian coordinates:
            Coordinates               Weight
  0.000000  0.000000  0.000000      1.000000
  0.041152  0.000000  0.000000      2.000000
  0.082305  0.000000  0.000000      2.000000
  0.123457  0.000000  0.000000      1.000000
  0.000000  0.045045  0.000000      2.000000
  0.041152  0.045045  0.000000      2.000000
 -0.041152  0.045045  0.000000      2.000000
  0.082305  0.045045  0.000000      2.000000
 -0.082305  0.045045  0.000000      2.000000
  0.123457  0.045045  0.000000      2.000000
  0.000000  0.090090  0.000000      2.000000
  0.041152  0.090090  0.000000      2.000000
 -0.041152  0.090090  0.000000      2.000000
  0.082305  0.090090  0.000000      2.000000
 -0.082305  0.090090  0.000000      2.000000
  0.123457  0.090090  0.000000      2.000000
  0.000000  0.135135  0.000000      1.000000
  0.041152  0.135135  0.000000      2.000000
  0.082305  0.135135  0.000000      2.000000
  0.123457  0.135135  0.000000      1.000000
  0.000000  0.000000  0.044874      1.000000
  0.041152  0.000000  0.044874      2.000000
  0.082305  0.000000  0.044874      2.000000
  0.123457  0.000000  0.044874      1.000000
  0.000000  0.045045  0.044874      2.000000
  0.041152  0.045045  0.044874      2.000000
 -0.041152  0.045045  0.044874      2.000000
  0.082305  0.045045  0.044874      2.000000
 -0.082305  0.045045  0.044874      2.000000
  0.123457  0.045045  0.044874      2.000000
  0.000000  0.090090  0.044874      2.000000
  0.041152  0.090090  0.044874      2.000000
 -0.041152  0.090090  0.044874      2.000000
  0.082305  0.090090  0.044874      2.000000
 -0.082305  0.090090  0.044874      2.000000
  0.123457  0.090090  0.044874      2.000000
  0.000000  0.135135  0.044874      1.000000
  0.041152  0.135135  0.044874      2.000000
  0.082305  0.135135  0.044874      2.000000
  0.123457  0.135135  0.044874      1.000000

 SYSTEM =  ./
 POSCAR =  Ge Se

 Startparameter for this run:
   NWRITE =      2    write-flag & timer
   PREC   = normal    normal or accurate (medium, high low for compatibility)
   ISTART =      0    job   : 0-new  1-cont  2-samecut
   ICHARG =      2    charge: 1-file 2-atom 10-const
   ISPIN  =      1    spin polarized calculation?
   LNONCOLLINEAR =      F non collinear calculations
   LSORBIT =      F    spin-orbit coupling
   INIWAV =      1    electr: 0-lowe 1-rand  2-diag
   LASPH  =      T    aspherical Exc in radial PAW
 Electronic Relaxation 1
   ENCUT  =  360.0 eV  26.46 Ry    5.14 a.u.   6.27  5.72 17.24*2*pi/ulx,y,z
   ENINI  =  360.0     initial cutoff
   ENAUG  =  446.8 eV  augmentation charge cutoff
   NELM   =    100;   NELMIN=  2; NELMDL= -5     # of ELM steps
   EDIFF  = 0.1E-05   stopping-criterion for ELM
   LREAL  =      F    real-space projection
   NLSPLINE    = F    spline interpolate recip. space projectors
   LCOMPAT=      F    compatible to vasp.4.4
   GGA_COMPAT  = T    GGA compatible to vasp.4.4-vasp.4.6
   LMAXPAW     = -100 max onsite density
   LMAXMIX     =    4 max onsite mixed and CHGCAR
   VOSKOWN=      0    Vosko Wilk Nusair interpolation
   ROPT   =    0.00000   0.00000
 Ionic relaxation
   EDIFFG = 0.1E-04   stopping-criterion for IOM
   NSW    =      0    number of steps for IOM
   NBLOCK =      1;   KBLOCK =      1    inner block; outer block
   IBRION =     -1    ionic relax: 0-MD 1-quasi-New 2-CG
   NFREE  =      0    steps in history (QN), initial steepest desc. (CG)
   ISIF   =      2    stress and relaxation
   IWAVPR =     10    prediction:  0-non 1-charg 2-wave 3-comb
   ISYM   =      0    0-nonsym 1-usesym 2-fastsym
   LCORR  =      T    Harris-Foulkes like correction to forces

   POTIM  = 0.5000    time-step for ionic-motion
   TEIN   =    0.0    initial temperature
   TEBEG  =    0.0;   TEEND  =   0.0 temperature during run
   SMASS  =  -3.00    Nose mass-parameter (am)
   estimated Nose-frequenzy (Omega)   =  0.10E-29 period in steps = 0.13E+47 mass=  -0.375E-27a.u.
   SCALEE = 1.0000    scale energy and forces
   NPACO  =    256;   APACO  = 10.0  distance and # of slots for P.C.
   PSTRESS=    0.0 pullay stress

  Mass of Ions in am
   POMASS =  72.61 78.96
  Ionic Valenz
   ZVAL   =   4.00  6.00
  Atomic Wigner-Seitz radii
  virtual crystal weights
   VCA    =   1.00  1.00
   NELECT =      40.0000    total number of electrons
   NUPDOWN=      -1.0000    fix difference up-down

 DOS related values:
   EMIN   =  10.00;   EMAX   =-10.00  energy-range for DOS
   EFERMI =   0.00;   METHOD = LEGACY
   ISMEAR =     0;   SIGMA  =   0.05  broadening in eV -4-tet -1-fermi 0-gaus

 Electronic relaxation 2 (details)
   IALGO  =     38    algorithm
   LDIAG  =      T    sub-space diagonalisation (order eigenvalues)
   LSUBROT=      F    optimize rotation matrix (better conditioning)
   TURBO    =      0    0=normal 1=particle mesh
   IRESTART =      0    0=no restart 2=restart with 2 vectors
   NREBOOT  =      0    no. of reboots
   NMIN     =      0    reboot dimension
   EREF     =   0.00    reference energy to select bands
   IMIX   =      4    mixing-type and parameters
     AMIX     =   0.40;   BMIX     =  1.00
     AMIX_MAG =   1.60;   BMIX_MAG =  1.00
     AMIN     =   0.10
     WC   =   100.;   INIMIX=   1;  MIXPRE=   1;  MAXMIX= -45

 Intra band minimization:
   WEIMIN = 0.0000     energy-eigenvalue tresh-hold
   EBREAK =  0.78E-08  absolut break condition
   DEPER  =   0.30     relativ break condition

   TIME   =   0.40     timestep for ELM

  volume/ion in A,a.u.               =      20.87       140.84
[...]
  -0.04115226  0.04504505  0.04487436       0.028
   0.08230453  0.04504505  0.04487436       0.028
  -0.08230453  0.04504505  0.04487436       0.028
   0.12345679  0.04504505  0.04487436       0.028
   0.00000000  0.09009009  0.04487436       0.028
   0.04115226  0.09009009  0.04487436       0.028
  -0.04115226  0.09009009  0.04487436       0.028
   0.08230453  0.09009009  0.04487436       0.028
  -0.08230453  0.09009009  0.04487436       0.028
   0.12345679  0.09009009  0.04487436       0.028
   0.00000000  0.13513514  0.04487436       0.014
   0.04115226  0.13513514  0.04487436       0.028
   0.08230453  0.13513514  0.04487436       0.028
   0.12345679  0.13513514  0.04487436       0.014

 k-points in reciprocal lattice and weights: KPOINTS created by Atomic Simulation Env
   0.00000000  0.00000000  0.00000000       0.014
   0.16666667  0.00000000  0.00000000       0.028
   0.33333333  0.00000000  0.00000000       0.028
   0.50000000  0.00000000  0.00000000       0.014
   0.00000000  0.16666667  0.00000000       0.028
   0.16666667  0.16666667  0.00000000       0.028
  -0.16666667  0.16666667  0.00000000       0.028
   0.33333333  0.16666667  0.00000000       0.028
  -0.33333333  0.16666667  0.00000000       0.028
   0.50000000  0.16666667  0.00000000       0.028
   0.00000000  0.33333333  0.00000000       0.028
   0.16666667  0.33333333  0.00000000       0.028
  -0.16666667  0.33333333  0.00000000       0.028
   0.33333333  0.33333333  0.00000000       0.028
  -0.33333333  0.33333333  0.00000000       0.028
   0.50000000  0.33333333  0.00000000       0.028
   0.00000000  0.50000000  0.00000000       0.014
   0.16666667  0.50000000  0.00000000       0.028
   0.33333333  0.50000000  0.00000000       0.028
   0.50000000  0.50000000  0.00000000       0.014
   0.00000000  0.00000000  0.50000000       0.014
   0.16666667  0.00000000  0.50000000       0.028
   0.33333333  0.00000000  0.50000000       0.028
   0.50000000  0.00000000  0.50000000       0.014
   0.00000000  0.16666667  0.50000000       0.028
   0.16666667  0.16666667  0.50000000       0.028
  -0.16666667  0.16666667  0.50000000       0.028
   0.33333333  0.16666667  0.50000000       0.028
  -0.33333333  0.16666667  0.50000000       0.028
   0.50000000  0.16666667  0.50000000       0.028
   0.00000000  0.33333333  0.50000000       0.028
   0.16666667  0.33333333  0.50000000       0.028
  -0.16666667  0.33333333  0.50000000       0.028
   0.33333333  0.33333333  0.50000000       0.028
  -0.33333333  0.33333333  0.50000000       0.028
   0.50000000  0.33333333  0.50000000       0.028
   0.00000000  0.50000000  0.50000000       0.014
   0.16666667  0.50000000  0.50000000       0.028
   0.33333333  0.50000000  0.50000000       0.028
   0.50000000  0.50000000  0.50000000       0.014

 position of ions in fractional coordinates (direct lattice)
   0.08298053  0.25000000  0.11802137
   0.58298053  0.75000000  0.38197863
   0.91701947  0.75000000  0.88197863
   0.41701947  0.25000000  0.61802137
   0.01426972  0.25000000  0.35220174
   0.51426972  0.75000000  0.14779826
   0.98573028  0.75000000  0.64779826
   0.48573028  0.25000000  0.85220174

 position of ions in cartesian coordinates  (Angst):
   0.33607116  0.92500000  1.31502018
   2.36107116  2.77500000  4.25609032
   3.71392884  2.77500000  9.82720082
   1.68892884  0.92500000  6.88613068
   0.05779235  0.92500000  3.92430963
   2.08279235  2.77500000  1.64680087
   3.99220765  2.77500000  7.21791137
   1.96720765  0.92500000  9.49542013

 k-point   1 :   0.0000 0.0000 0.0000  plane waves:    2601
 k-point   2 :   0.1667 0.0000 0.0000  plane waves:    2599
 k-point   3 :   0.3333 0.0000 0.0000  plane waves:    2596
 k-point   4 :   0.5000 0.0000 0.0000  plane waves:    2568
 k-point   5 :   0.0000 0.1667 0.0000  plane waves:    2601
 k-point   6 :   0.1667 0.1667 0.0000  plane waves:    2591
 k-point   7 :  -0.1667 0.1667 0.0000  plane waves:    2591
 k-point   8 :   0.3333 0.1667 0.0000  plane waves:    2587
 k-point   9 :  -0.3333 0.1667 0.0000  plane waves:    2587
 k-point  10 :   0.5000 0.1667 0.0000  plane waves:    2586
 k-point  11 :   0.0000 0.3333 0.0000  plane waves:    2584
 k-point  12 :   0.1667 0.3333 0.0000  plane waves:    2581
 k-point  13 :  -0.1667 0.3333 0.0000  plane waves:    2581
 k-point  14 :   0.3333 0.3333 0.0000  plane waves:    2594
 k-point  15 :  -0.3333 0.3333 0.0000  plane waves:    2594
 k-point  16 :   0.5000 0.3333 0.0000  plane waves:    2598
 k-point  17 :   0.0000 0.5000 0.0000  plane waves:    2588
 k-point  18 :   0.1667 0.5000 0.0000  plane waves:    2594
 k-point  19 :   0.3333 0.5000 0.0000  plane waves:    2594
 k-point  20 :   0.5000 0.5000 0.0000  plane waves:    2612
 k-point  21 :   0.0000 0.0000 0.5000  plane waves:    2602
 k-point  22 :   0.1667 0.0000 0.5000  plane waves:    2600
 k-point  23 :   0.3333 0.0000 0.5000  plane waves:    2590
 k-point  24 :   0.5000 0.0000 0.5000  plane waves:    2592
 k-point  25 :   0.0000 0.1667 0.5000  plane waves:    2598
 k-point  26 :   0.1667 0.1667 0.5000  plane waves:    2590
 k-point  27 :  -0.1667 0.1667 0.5000  plane waves:    2590
 k-point  28 :   0.3333 0.1667 0.5000  plane waves:    2580
 k-point  29 :  -0.3333 0.1667 0.5000  plane waves:    2580
 k-point  30 :   0.5000 0.1667 0.5000  plane waves:    2576
 k-point  31 :   0.0000 0.3333 0.5000  plane waves:    2592
 k-point  32 :   0.1667 0.3333 0.5000  plane waves:    2588
 k-point  33 :  -0.1667 0.3333 0.5000  plane waves:    2588
 k-point  34 :   0.3333 0.3333 0.5000  plane waves:    2584
 k-point  35 :  -0.3333 0.3333 0.5000  plane waves:    2584
 k-point  36 :   0.5000 0.3333 0.5000  plane waves:    2596
 k-point  37 :   0.0000 0.5000 0.5000  plane waves:    2552
 k-point  38 :   0.1667 0.5000 0.5000  plane waves:    2580
 k-point  39 :   0.3333 0.5000 0.5000  plane waves:    2608
 k-point  40 :   0.5000 0.5000 0.5000  plane waves:    2624

 maximum and minimum number of plane-waves per node :       665      629

 maximum number of plane-waves:      2624
 maximum index in each direction:
   IXMAX=    6   IYMAX=    5   IZMAX=   17
   IXMIN=   -6   IYMIN=   -6   IZMIN=  -17

 parallel 3D FFT for wavefunctions:
    minimum data exchange during FFTs selected (reduces bandwidth)
 parallel 3D FFT for charge:
    minimum data exchange during FFTs selected (reduces bandwidth)

 Broyden mixing: mesh for mixing (old mesh)
   NGX = 13   NGY = 11   NGZ = 35
  (NGX  = 40   NGY  = 36   NGZ  =108)
  gives a total of   5005 points

 initial charge density was supplied:
 charge density of overlapping atoms calculated
 number of electron      40.0000000 magnetization
 keeping initial charge density in first step

 Maximum index for augmentation-charges           366 (set IRDMAX)

 First call to EWALD:  gamma=   0.322
 Maximum number of real-space cells 4x 4x 2
 Maximum number of reciprocal cells 2x 2x 5

--------------------------------------- Ionic step        1  -------------------------------------------

--------------------------------------- Iteration      1(   1)  ---------------------------------------

 eigenvalue-minimisations  :  2560
 total energy-change (2. order) : 0.1263775E+03  (-0.1317696E+04)
 number of electron      40.0000000 magnetization
 augmentation part       40.0000000 magnetization

 Free energy of the ion-electron system (eV)
  alpha Z        PSCENC =       101.48429621
  Ewald energy   TEWEN  =     -1509.76361296
  -Hartree energ DENC   =       -97.42952158
  -exchange      EXHF   =         0.00000000
  -V(xc)+E(xc)   XCENC  =       -31.48061038
  PAW double counting   =      1193.78262552    -1080.73714043
  entropy T*S    EENTRO =        -0.00297268
  eigenvalues    EBANDS =       102.03980817
  atomic energy  EATOM  =      1448.48460880
  Solvation  Ediel_sol  =         0.00000000
  free energy    TOTEN  =       126.37748066 eV

  energy without entropy =      126.38045335  energy(sigma->0) =      126.37896701

[...]

 eigenvalue-minimisations  :  3712
 total energy-change (2. order) :-0.1523238E+03  (-0.1479460E+03)
 number of electron      40.0000000 magnetization
 augmentation part       40.0000000 magnetization

[...]

 Broyden mixing:
  rms(total) = 0.70721E+00    rms(broyden)= 0.70720E+00
  rms(prec ) = 0.76515E+00
  weight for this iteration     100.00

[...]

 eigenvalues of (default mixing * dielectric matrix)
  average eigenvalue GAMMA=   2.3668
  2.3668

[...]

 eigenvalue-minimisations  :  3200
 total energy-change (2. order) :-0.2071858E-04  (-0.3544154E-05)
 number of electron      39.9999976 magnetization
 augmentation part       -7.3485007 magnetization

 Broyden mixing:
  rms(total) = 0.93283E-03    rms(broyden)= 0.93282E-03
  rms(prec ) = 0.10740E-02
  weight for this iteration     100.00

 eigenvalues of (default mixing * dielectric matrix)
  average eigenvalue GAMMA=   1.6830
  2.5754  2.4544  1.8658  1.1661  1.1661  0.8703

[...]

--------------------------------------- Iteration      1(  12)  ---------------------------------------

 eigenvalue-minimisations  :  3056
 total energy-change (2. order) : 0.3163403E-06  (-0.4056418E-06)
 number of electron      39.9999976 magnetization
 augmentation part       -7.3485007 magnetization

 Free energy of the ion-electron system (eV)
  alpha Z        PSCENC =       101.48429621
  Ewald energy   TEWEN  =     -1509.76361296
  -Hartree energ DENC   =      -104.27597139
  -exchange      EXHF   =         0.00000000
  -V(xc)+E(xc)   XCENC  =       -30.35539111
  PAW double counting   =      2051.73891978    -1939.47170749
  entropy T*S    EENTRO =        -0.00301838
  eigenvalues    EBANDS =       -51.00348848
  atomic energy  EATOM  =      1448.48460880
  Solvation  Ediel_sol  =         0.00000000
  free energy    TOTEN  =       -33.16536503 eV

  energy without entropy =      -33.16234665  energy(sigma->0) =      -33.16385584

 average (electrostatic) potential at core
  the test charge radii are     1.1631  1.0808
  (the norm of the test charge is              1.0000)
       1 -32.1564       2 -32.1564       3 -32.1564       4 -32.1564       5 -53.7688
       6 -53.7688       7 -53.7688       8 -53.7688

 E-fermi :   4.6858     XC(G=0): -10.0060     alpha+bet :-10.1101

 Fermi energy:         4.6857564114

 k-point     1 :       0.0000    0.0000    0.0000
  band No.  band energies     occupation
      1     -10.3640      2.00000
      2      -9.9756      2.00000
      3      -8.9187      2.00000
      4      -8.2458      2.00000
      5      -3.1279      2.00000
      6      -2.3081      2.00000
      7      -1.7560      2.00000
      8      -0.4288      2.00000
      9      -0.3254      2.00000
     10       0.5339      2.00000
     11       0.6400      2.00000
     12       1.0244      2.00000
     13       1.1823      2.00000
     14       1.6273      2.00000
     15       2.3711      2.00000
     16       2.4636      2.00000
     17       2.5216      2.00000
     18       3.1556      2.00000
     19       3.8863      2.00000
     20       4.5139      2.00000
     21       4.7203      0.32894
     22       7.6184      0.00000
     23       7.9436      0.00000
     24       8.2344      0.00000
     25       8.3700      0.00000
     26       8.4827      0.00000
     27       8.9378      0.00000
     28       9.8897      0.00000
     29       9.9108      0.00000
     30      10.1670      0.00000
     31      10.2715      0.00000
     32      10.8195      0.00000

[...]

 k-point    40 :       0.5000    0.5000    0.5000
  band No.  band energies     occupation
      1      -8.1601      2.00000
      2      -8.1601      2.00000
      3      -8.1601      2.00000
      4      -8.1601      2.00000
      5      -3.2157      2.00000
      6      -3.2157      2.00000
      7      -3.2157      2.00000
      8      -3.2157      2.00000
      9      -1.0389      2.00000
     10      -1.0389      2.00000
     11      -1.0389      2.00000
     12      -1.0389      2.00000
     13       0.0649      2.00000
     14       0.0649      2.00000
     15       0.0649      2.00000
     16       0.0649      2.00000
     17       2.7128      2.00000
     18       2.7128      2.00000
     19       2.7128      2.00000
     20       2.7128      2.00000
     21       6.8142      0.00000
     22       6.8142      0.00000
     23       6.8142      0.00000
     24       6.8142      0.00000
     25      10.3040      0.00000
     26      10.3040      0.00000
     27      10.3040      0.00000
     28      10.3040      0.00000
     29      11.4788      0.00000
     30      11.4788      0.00000
     31      11.4788      0.00000
     32      11.4788      0.00000

 soft charge-density along one line, spin component            1
         0         1         2         3         4         5         6         7         8         9
 total charge-density along one line

------------------------ aborting loop because EDIFF is reached ----------------------------------------

  FORCE on cell =-STRESS in cart. coord.  units (eV):
  Direction    XX          YY          ZZ          XY          YZ          ZX
  Alpha Z   101.48430   101.48430   101.48430
  Ewald    -477.72451  -470.08658  -561.95440    -0.00000     0.00000    -0.00000
  Hartree    43.11519    48.88490    12.27754     0.00000    -0.00000     0.00000
  E(xc)    -142.64757  -142.80555  -143.06786    -0.00000     0.00000     0.00000
  Local    -148.11087  -161.20294   -42.02443    -0.00000     0.00000     0.00000
  n-local   243.18017   243.93410   243.34811     0.00000    -0.00000    -0.00000
  augment   -11.47068   -11.56161   -12.07958    -0.00000     0.00000    -0.00000
  Kinetic   400.28058   401.37323   404.02418     0.00000    -0.00000     0.00000
  Fock        0.00000     0.00000     0.00000     0.00000     0.00000     0.00000
  Total       8.10661    10.01985     2.00785     0.00000    -0.00000     0.00000
  in kB      77.78960    96.14869    19.26700     0.00000    -0.00000     0.00000

 VOLUME and BASIS-vectors are now :
  energy-cutoff  :      360.00
  volume of cell :      166.97
      direct lattice vectors                 reciprocal lattice vectors
     4.050000000  0.000000000  0.000000000     0.246913580  0.000000000  0.000000000
     0.000000000  3.700000000  0.000000000     0.000000000  0.270270270  0.000000000
     0.000000000  0.000000000 11.142221000     0.000000000  0.000000000  0.089748713

  length of vectors
     4.050000000  3.700000000 11.142221000     0.246913580  0.270270270  0.089748713

 FORCES acting on ions
    electron-ion (+dipol)            ewald-force                    non-local-force                 convergence-correction
   0.101E+02 -.623E-06 0.252E+02   -.117E+02 0.598E-15 -.278E+02   0.164E+01 0.580E-06 0.257E+01   0.258E-03 0.187E-06 -.480E-03
   0.101E+02 -.403E-06 -.252E+02   -.117E+02 0.662E-15 0.278E+02   0.164E+01 0.277E-06 -.257E+01   0.259E-03 0.247E-06 0.481E-03
   -.101E+02 -.575E-07 -.252E+02   0.117E+02 0.219E-15 0.278E+02   -.164E+01 -.153E-06 -.257E+01   -.258E-03 0.982E-07 0.468E-03
   -.101E+02 0.237E-05 0.252E+02   0.117E+02 0.818E-15 -.278E+02   -.164E+01 -.139E-05 0.257E+01   -.258E-03 -.955E-06 -.468E-03
   -.966E+01 -.250E-05 -.255E+02   0.107E+02 -.503E-15 0.264E+02   -.104E+01 0.151E-05 -.963E+00   0.101E-03 0.967E-06 0.176E-02
   -.966E+01 -.314E-05 0.255E+02   0.107E+02 0.464E-16 -.264E+02   -.104E+01 0.224E-05 0.963E+00   0.100E-03 0.149E-05 -.176E-02
   0.966E+01 0.168E-05 0.255E+02   -.107E+02 -.925E-15 -.264E+02   0.104E+01 -.188E-05 0.963E+00   -.101E-03 -.315E-06 -.174E-02
   0.966E+01 0.385E-05 -.255E+02   -.107E+02 -.420E-15 0.264E+02   0.104E+01 -.213E-05 -.963E+00   -.103E-03 -.189E-05 0.174E-02
   -.753E-06 0.117E-05 0.703E-05   -.711E-14 0.496E-15 -.107E-13   0.180E-05 -.945E-06 -.273E-05   -.519E-06 -.173E-06 -.443E-05

 POSITION                                       TOTAL-FORCE (eV/Angst)
      0.33607      0.92500      1.31502        -0.022904      0.000000      0.003272
      2.36107      2.77500      4.25609        -0.022904      0.000000     -0.003275
      3.71393      2.77500      9.82720         0.022903     -0.000000     -0.003273
      1.68893      0.92500      6.88613         0.022903      0.000000      0.003275
      0.05779      0.92500      3.92431         0.024357     -0.000000      0.000164
      2.08279      2.77500      1.64680         0.024356      0.000001     -0.000163
      3.99221      2.77500      7.21791        -0.024356     -0.000001     -0.000164
      1.96721      0.92500      9.49542        -0.024356     -0.000000      0.000164
    total drift:                                0.000001      0.000000     -0.000000

  FREE ENERGIE OF THE ION-ELECTRON SYSTEM (eV)
  free  energy   TOTEN  =       -33.16536503 eV

  energy  without entropy=      -33.16234665  energy(sigma->0) =      -33.16385584